6
Properties=species:S:1:pos:R:3 frame=0 source="RHF force, zero initial velocity, true 0.5 fs position update" pbc="F F F"
O -1.4500000000 -0.1000000000 -0.1000000000
H -0.5567641119 -0.4473695120 0.1481210800
H -1.5144237272 0.7289137181 0.4374491895
O 1.4200000000 0.1800000000 0.2000000000
H 2.0338464620 0.7962287735 0.6728156298
H 1.7966263398 -0.7086087940 0.4205153315
6
Properties=species:S:1:pos:R:3 frame=1 source="RHF force, zero initial velocity, true 0.5 fs position update" pbc="F F F"
O -1.4500000420 -0.1000000391 -0.1000000159
H -0.5567642701 -0.4473682634 0.1481211996
H -1.5144229327 0.7289133302 0.4374492059
O 1.4199999641 0.1799999890 0.1999999921
H 2.0338465151 0.7962281054 0.6728156676
H 1.7966268880 -0.7086081910 0.4205155362
6
Properties=species:S:1:pos:R:3 frame=2 source="RHF force, zero initial velocity, true 0.5 fs position update" pbc="F F F"
O -1.4500001681 -0.1000001564 -0.1000000638
H -0.5567647447 -0.4473645174 0.1481215582
H -1.5144205492 0.7289121667 0.4374492548
O 1.4199998562 0.1799999558 0.1999999685
H 2.0338466744 0.7962261014 0.6728157809
H 1.7966285325 -0.7086063822 0.4205161502
6
Properties=species:S:1:pos:R:3 frame=3 source="RHF force, zero initial velocity, true 0.5 fs position update" pbc="F F F"
O -1.4500003783 -0.1000003519 -0.1000001435
H -0.5567655357 -0.4473582741 0.1481221558
H -1.5144165768 0.7289102276 0.4374493364
O 1.4199996765 0.1799999007 0.1999999291
H 2.0338469398 0.7962227613 0.6728159696
H 1.7966312732 -0.7086033675 0.4205171735
6
Properties=species:S:1:pos:R:3 frame=4 source="RHF force, zero initial velocity, true 0.5 fs position update" pbc="F F F"
O -1.4500006724 -0.1000006255 -0.1000002551
H -0.5567666430 -0.4473495335 0.1481229926
H -1.5144110153 0.7289075127 0.4374494506
O 1.4199994250 0.1799998234 0.1999998739
H 2.0338473114 0.7962180851 0.6728162339
H 1.7966351103 -0.7085991469 0.4205186061
6
Properties=species:S:1:pos:R:3 frame=5 source="RHF force, zero initial velocity, true 0.5 fs position update" pbc="F F F"
O -1.4500010507 -0.1000009774 -0.1000003986
H -0.5567680668 -0.4473382956 0.1481240684
H -1.5144038648 0.7289040222 0.4374495974
O 1.4199991015 0.1799997240 0.1999998030
H 2.0338477892 0.7962120730 0.6728165737
H 1.7966400438 -0.7085937205 0.4205204481
6
Properties=species:S:1:pos:R:3 frame=6 source="RHF force, zero initial velocity, true 0.5 fs position update" pbc="F F F"
O -1.4500015130 -0.1000014074 -0.1000005740
H -0.5567698069 -0.4473245604 0.1481253833
H -1.5143951253 0.7288997560 0.4374497768
O 1.4199987062 0.1799996026 0.1999997163
H 2.0338483731 0.7962047248 0.6728169891
H 1.7966460735 -0.7085870881 0.4205226994
6
Properties=species:S:1:pos:R:3 frame=7 source="RHF force, zero initial velocity, true 0.5 fs position update" pbc="F F F"
O -1.4500020594 -0.1000019157 -0.1000007813
H -0.5567718634 -0.4473083279 0.1481269372
H -1.5143847968 0.7288947141 0.4374499889
O 1.4199982390 0.1799994591 0.1999996138
H 2.0338490632 0.7961960405 0.6728174799
H 1.7966531995 -0.7085792499 0.4205253601
6
Properties=species:S:1:pos:R:3 frame=8 source="RHF force, zero initial velocity, true 0.5 fs position update" pbc="F F F"
O -1.4500026898 -0.1000025021 -0.1000010204
H -0.5567742363 -0.4472895980 0.1481287303
H -1.5143728793 0.7288888966 0.4374502336
O 1.4199976999 0.1799992936 0.1999994956
H 2.0338498595 0.7961860202 0.6728180463
H 1.7966614219 -0.7085702058 0.4205284301
6
Properties=species:S:1:pos:R:3 frame=9 source="RHF force, zero initial velocity, true 0.5 fs position update" pbc="F F F"
O -1.4500034043 -0.1000031668 -0.1000012915
H -0.5567769256 -0.4472683708 0.1481307624
H -1.5143593728 0.7288823034 0.4374505109
O 1.4199970889 0.1799991059 0.1999993616
H 2.0338507620 0.7961746639 0.6728186881
H 1.7966707405 -0.7085599559 0.4205319094
6
Properties=species:S:1:pos:R:3 frame=10 source="RHF force, zero initial velocity, true 0.5 fs position update" pbc="F F F"
O -1.4500042028 -0.1000039096 -0.1000015944
H -0.5567799313 -0.4472446464 0.1481330335
H -1.5143442773 0.7288749345 0.4374508209
O 1.4199964060 0.1799988962 0.1999992119
H 2.0338517706 0.7961619715 0.6728194055
H 1.7966811555 -0.7085485000 0.4205357980
6
Properties=species:S:1:pos:R:3 frame=11 source="RHF force, zero initial velocity, true 0.5 fs position update" pbc="F F F"
O -1.4500050854 -0.1000047306 -0.1000019293
H -0.5567832534 -0.4472184246 0.1481355438
H -1.5143275928 0.7288667899 0.4374511635
O 1.4199956513 0.1799986644 0.1999990464
H 2.0338528854 0.7961479431 0.6728201984
H 1.7966926668 -0.7085358383 0.4205400960
6
Properties=species:S:1:pos:R:3 frame=12 source="RHF force, zero initial velocity, true 0.5 fs position update" pbc="F F F"
O -1.4500060520 -0.1000056298 -0.1000022960
H -0.5567868918 -0.4471897055 0.1481382931
H -1.5143093193 0.7288578697 0.4374515387
O 1.4199948247 0.1799984105 0.1999988651
H 2.0338541064 0.7961325787 0.6728210668
H 1.7967052744 -0.7085219707 0.4205448033
6
Properties=species:S:1:pos:R:3 frame=13 source="RHF force, zero initial velocity, true 0.5 fs position update" pbc="F F F"
O -1.4500071027 -0.1000066072 -0.1000026946
H -0.5567908467 -0.4471584891 0.1481412815
H -1.5142894569 0.7288481738 0.4374519466
O 1.4199939262 0.1799981345 0.1999986681
H 2.0338554335 0.7961158782 0.6728220107
H 1.7967189783 -0.7085068972 0.4205499199
6
Properties=species:S:1:pos:R:3 frame=14 source="RHF force, zero initial velocity, true 0.5 fs position update" pbc="F F F"
O -1.4500082375 -0.1000076628 -0.1000031251
H -0.5567951179 -0.4471247753 0.1481445089
H -1.5142680054 0.7288377022 0.4374523870
O 1.4199929558 0.1799978365 0.1999984553
H 2.0338568668 0.7960978417 0.6728230301
H 1.7967337786 -0.7084906178 0.4205554459
6
Properties=species:S:1:pos:R:3 frame=15 source="RHF force, zero initial velocity, true 0.5 fs position update" pbc="F F F"
O -1.4500094563 -0.1000087965 -0.1000035875
H -0.5567997055 -0.4470885643 0.1481479754
H -1.5142449649 0.7288264550 0.4374528601
O 1.4199919136 0.1799975164 0.1999982268
H 2.0338584063 0.7960784692 0.6728241251
H 1.7967496751 -0.7084731325 0.4205613812
6
Properties=species:S:1:pos:R:3 frame=16 source="RHF force, zero initial velocity, true 0.5 fs position update" pbc="F F F"
O -1.4500107592 -0.1000100085 -0.1000040818
H -0.5568046096 -0.4470498559 0.1481516810
H -1.5142203354 0.7288144320 0.4374533658
O 1.4199907994 0.1799971742 0.1999979825
H 2.0338600520 0.7960577606 0.6728252955
H 1.7967666680 -0.7084544414 0.4205677258
6
Properties=species:S:1:pos:R:3 frame=17 source="RHF force, zero initial velocity, true 0.5 fs position update" pbc="F F F"
O -1.4500121461 -0.1000112987 -0.1000046079
H -0.5568098300 -0.4470086503 0.1481556257
H -1.5141941170 0.7288016335 0.4374539042
O 1.4199896134 0.1799968100 0.1999977224
H 2.0338618038 0.7960357160 0.6728265415
H 1.7967847572 -0.7084345444 0.4205744798
6
Properties=species:S:1:pos:R:3 frame=18 source="RHF force, zero initial velocity, true 0.5 fs position update" pbc="F F F"
O -1.4500136171 -0.1000126670 -0.1000051660
H -0.5568153667 -0.4469649473 0.1481598094
H -1.5141663095 0.7287880592 0.4374544752
O 1.4199883555 0.1799964236 0.1999974466
H 2.0338636618 0.7960123353 0.6728278630
H 1.7968039426 -0.7084134415 0.4205816431
6
Properties=species:S:1:pos:R:3 frame=19 source="RHF force, zero initial velocity, true 0.5 fs position update" pbc="F F F"
O -1.4500151721 -0.1000141135 -0.1000057559
H -0.5568212199 -0.4469187470 0.1481642322
H -1.5141369130 0.7287737093 0.4374550788
O 1.4199870258 0.1799960152 0.1999971550
H 2.0338656260 0.7959876186 0.6728292600
H 1.7968242244 -0.7083911327 0.4205892157
6
Properties=species:S:1:pos:R:3 frame=20 source="RHF force, zero initial velocity, true 0.5 fs position update" pbc="F F F"
O -1.4500168112 -0.1000156383 -0.1000063778
H -0.5568273895 -0.4468700494 0.1481688941
H -1.5141059275 0.7287585836 0.4374557150
O 1.4199856241 0.1799955847 0.1999968476
H 2.0338676963 0.7959615658 0.6728307325
H 1.7968456026 -0.7083676181 0.4205971976
6
Properties=species:S:1:pos:R:3 frame=21 source="RHF force, zero initial velocity, true 0.5 fs position update" pbc="F F F"
O -1.4500185343 -0.1000172412 -0.1000070315
H -0.5568338754 -0.4468188544 0.1481737950
H -1.5140733531 0.7287426824 0.4374563839
O 1.4199841506 0.1799951321 0.1999965245
H 2.0338698729 0.7959341771 0.6728322805
H 1.7968680770 -0.7083428976 0.4206055889
6
Properties=species:S:1:pos:R:3 frame=22 source="RHF force, zero initial velocity, true 0.5 fs position update" pbc="F F F"
O -1.4500203416 -0.1000189223 -0.1000077171
H -0.5568406778 -0.4467651622 0.1481789351
H -1.5140391896 0.7287260054 0.4374570854
O 1.4199826052 0.1799946575 0.1999961856
H 2.0338721555 0.7959054522 0.6728339041
H 1.7968916477 -0.7083169711 0.4206143895
6
Properties=species:S:1:pos:R:3 frame=23 source="RHF force, zero initial velocity, true 0.5 fs position update" pbc="F F F"
O -1.4500222328 -0.1000206816 -0.1000084346
H -0.5568477965 -0.4467089727 0.1481843141
H -1.5140034371 0.7287085528 0.4374578195
O 1.4199809879 0.1799941608 0.1999958310
H 2.0338745444 0.7958753914 0.6728356031
H 1.7969163148 -0.7082898389 0.4206235995
6
Properties=species:S:1:pos:R:3 frame=24 source="RHF force, zero initial velocity, true 0.5 fs position update" pbc="F F F"
O -1.4500242081 -0.1000225191 -0.1000091840
H -0.5568552316 -0.4466502858 0.1481899323
H -1.5139660957 0.7286903245 0.4374585862
O 1.4199792987 0.1799936420 0.1999954606
H 2.0338770394 0.7958439945 0.6728373777
H 1.7969420782 -0.7082615007 0.4206332187
