6
Properties=species:S:1:pos:R:3 frame=0 source="RHF force VV displacement with documented visual amplification" pbc="F F F"
O -1.4500000000 0.0000000000 0.0000000000
H -0.4930000000 0.0000000000 0.0000000000
H -1.6896136639 0.9265172918 0.0000000000
O 1.4500000000 0.0000000000 0.0000000000
H 2.0358919370 0.7566899221 0.0000000000
H 2.0358919370 -0.7566899221 0.0000000000
6
Properties=species:S:1:pos:R:3 frame=1 source="RHF force VV displacement with documented visual amplification" pbc="F F F"
O -1.4500192529 -0.0000255471 0.0000000000
H -0.4926540246 0.0000665077 0.0000000000
H -1.6896192972 0.9268498718 0.0000000000
O 1.4499678442 0.0000003745 0.0000000000
H 2.0361350421 0.7568987599 0.0000000000
H 2.0361244497 -0.7568983089 0.0000000000
6
Properties=species:S:1:pos:R:3 frame=2 source="RHF force VV displacement with documented visual amplification" pbc="F F F"
O -1.4500770115 -0.0001021884 0.0000000000
H -0.4916160985 0.0002660307 0.0000000000
H -1.6896361971 0.9278476118 0.0000000000
O 1.4498713768 0.0000014979 0.0000000000
H 2.0368643574 0.7575252733 0.0000000000
H 2.0368219879 -0.7575234692 0.0000000000
6
Properties=species:S:1:pos:R:3 frame=3 source="RHF force VV displacement with documented visual amplification" pbc="F F F"
O -1.4501732759 -0.0002299238 0.0000000000
H -0.4898862216 0.0005985691 0.0000000000
H -1.6896643637 0.9295105118 0.0000000000
O 1.4497105979 0.0000033702 0.0000000000
H 2.0380798830 0.7585694624 0.0000000000
H 2.0379845515 -0.7585654032 0.0000000000
6
Properties=species:S:1:pos:R:3 frame=4 source="RHF force VV displacement with documented visual amplification" pbc="F F F"
O -1.4503080461 -0.0004087535 0.0000000000
H -0.4874643940 0.0010641228 0.0000000000
H -1.6897037969 0.9318385718 0.0000000000
O 1.4494855074 0.0000059916 0.0000000000
H 2.0397816188 0.7600313270 0.0000000000
H 2.0396121406 -0.7600241108 0.0000000000
6
Properties=species:S:1:pos:R:3 frame=5 source="RHF force VV displacement with documented visual amplification" pbc="F F F"
O -1.4504813220 -0.0006386773 0.0000000000
H -0.4843506156 0.0016626919 0.0000000000
H -1.6897544967 0.9348317917 0.0000000000
O 1.4491961053 0.0000093618 0.0000000000
H 2.0419695648 0.7619108673 0.0000000000
H 2.0417047551 -0.7618995919 0.0000000000
6
Properties=species:S:1:pos:R:3 frame=6 source="RHF force VV displacement with documented visual amplification" pbc="F F F"
O -1.4506931037 -0.0009196954 0.0000000000
H -0.4805448865 0.0023942764 0.0000000000
H -1.6898164632 0.9384901717 0.0000000000
O 1.4488423916 0.0000134810 0.0000000000
H 2.0446437210 0.7642080832 0.0000000000
H 2.0442623950 -0.7641918466 0.0000000000
6
Properties=species:S:1:pos:R:3 frame=7 source="RHF force VV displacement with documented visual amplification" pbc="F F F"
O -1.4509433911 -0.0012518076 0.0000000000
H -0.4760472066 0.0032588762 0.0000000000
H -1.6898896962 0.9428137116 0.0000000000
O 1.4484243664 0.0000183491 0.0000000000
H 2.0478040874 0.7669229747 0.0000000000
H 2.0472850605 -0.7669008749 0.0000000000
6
Properties=species:S:1:pos:R:3 frame=8 source="RHF force VV displacement with documented visual amplification" pbc="F F F"
O -1.4512321843 -0.0016350140 0.0000000000
H -0.4708575759 0.0042564914 0.0000000000
H -1.6899741959 0.9478024116 0.0000000000
O 1.4479420295 0.0000239662 0.0000000000
H 2.0514506641 0.7700555418 0.0000000000
H 2.0507727513 -0.7700266768 0.0000000000
6
Properties=species:S:1:pos:R:3 frame=9 source="RHF force VV displacement with documented visual amplification" pbc="F F F"
O -1.4515594833 -0.0020693146 0.0000000000
H -0.4649759945 0.0053871219 0.0000000000
H -1.6900699623 0.9534562715 0.0000000000
O 1.4473953811 0.0000303322 0.0000000000
H 2.0555834509 0.7736057846 0.0000000000
H 2.0547254676 -0.7735692523 0.0000000000
6
Properties=species:S:1:pos:R:3 frame=10 source="RHF force VV displacement with documented visual amplification" pbc="F F F"
O -1.4519252880 -0.0025547094 0.0000000000
H -0.4584024624 0.0066507678 0.0000000000
H -1.6901769952 0.9597752914 0.0000000000
O 1.4467844211 0.0000374472 0.0000000000
H 2.0602024480 0.7775737029 0.0000000000
H 2.0591432094 -0.7775286014 0.0000000000
6
Properties=species:S:1:pos:R:3 frame=11 source="RHF force VV displacement with documented visual amplification" pbc="F F F"
O -1.4523295985 -0.0030911983 0.0000000000
H -0.4511369795 0.0080474290 0.0000000000
H -1.6902952948 0.9667594714 0.0000000000
O 1.4461091496 0.0000453111 0.0000000000
H 2.0653076554 0.7819592969 0.0000000000
H 2.0640259766 -0.7819047241 0.0000000000
6
Properties=species:S:1:pos:R:3 frame=12 source="RHF force VV displacement with documented visual amplification" pbc="F F F"
O -1.4527724148 -0.0036787815 0.0000000000
H -0.4431795459 0.0095771056 0.0000000000
H -1.6904248610 0.9744088113 0.0000000000
O 1.4453695664 0.0000539240 0.0000000000
H 2.0708990729 0.7867625665 0.0000000000
H 2.0693737692 -0.7866976203 0.0000000000
6
Properties=species:S:1:pos:R:3 frame=13 source="RHF force VV displacement with documented visual amplification" pbc="F F F"
O -1.4532537368 -0.0043174588 0.0000000000
H -0.4345301615 0.0112397976 0.0000000000
H -1.6905656939 0.9827233112 0.0000000000
O 1.4445656717 0.0000632858 0.0000000000
H 2.0769767007 0.7919835117 0.0000000000
H 2.0751865873 -0.7919072901 0.0000000000
6
Properties=species:S:1:pos:R:3 frame=14 source="RHF force VV displacement with documented visual amplification" pbc="F F F"
O -1.4537735645 -0.0050072304 0.0000000000
H -0.4251888263 0.0130355049 0.0000000000
H -1.6907177933 0.9917029711 0.0000000000
O 1.4436974654 0.0000733965 0.0000000000
H 2.0835405386 0.7976221326 0.0000000000
H 2.0814644308 -0.7975337336 0.0000000000
6
Properties=species:S:1:pos:R:3 frame=15 source="RHF force VV displacement with documented visual amplification" pbc="F F F"
O -1.4543318980 -0.0057480961 0.0000000000
H -0.4151555404 0.0149642275 0.0000000000
H -1.6908811594 1.0013477909 0.0000000000
O 1.4427649475 0.0000842562 0.0000000000
H 2.0905905868 0.8036784290 0.0000000000
H 2.0882072998 -0.8035769506 0.0000000000
6
Properties=species:S:1:pos:R:3 frame=16 source="RHF force VV displacement with documented visual amplification" pbc="F F F"
O -1.4549287373 -0.0065400560 0.0000000000
H -0.4044303038 0.0170259655 0.0000000000
H -1.6910557921 1.0116577708 0.0000000000
O 1.4417681181 0.0000958648 0.0000000000
H 2.0981268453 0.8101524011 0.0000000000
H 2.0954151942 -0.8100369411 0.0000000000
6
Properties=species:S:1:pos:R:3 frame=17 source="RHF force VV displacement with documented visual amplification" pbc="F F F"
O -1.4555640824 -0.0073831101 0.0000000000
H -0.3930131163 0.0192207189 0.0000000000
H -1.6912416915 1.0226329107 0.0000000000
O 1.4407069770 0.0001082224 0.0000000000
H 2.1061493139 0.8170440488 0.0000000000
H 2.1030881141 -0.8169137053 0.0000000000
6
Properties=species:S:1:pos:R:3 frame=18 source="RHF force VV displacement with documented visual amplification" pbc="F F F"
O -1.4562379332 -0.0082772583 0.0000000000
H -0.3809039782 0.0215484876 0.0000000000
H -1.6914388575 1.0342732106 0.0000000000
O 1.4395815244 0.0001213289 0.0000000000
H 2.1146579928 0.8243533721 0.0000000000
H 2.1112260595 -0.8242072431 0.0000000000
6
Properties=species:S:1:pos:R:3 frame=19 source="RHF force VV displacement with documented visual amplification" pbc="F F F"
O -1.4569502898 -0.0092225008 0.0000000000
H -0.3681028893 0.0240092717 0.0000000000
H -1.6916472901 1.0465786704 0.0000000000
O 1.4383917603 0.0001351844 0.0000000000
H 2.1236528819 0.8320803710 0.0000000000
H 2.1198290302 -0.8319175544 0.0000000000
6
Properties=species:S:1:pos:R:3 frame=20 source="RHF force VV displacement with documented visual amplification" pbc="F F F"
O -1.4577011521 -0.0102188374 0.0000000000
H -0.3546098496 0.0266030712 0.0000000000
H -1.6918669893 1.0595492902 0.0000000000
O 1.4371376845 0.0001497888 0.0000000000
H 2.1331339812 0.8402250455 0.0000000000
H 2.1288970265 -0.8400446394 0.0000000000
6
Properties=species:S:1:pos:R:3 frame=21 source="RHF force VV displacement with documented visual amplification" pbc="F F F"
O -1.4584905202 -0.0112662683 0.0000000000
H -0.3404248592 0.0293298859 0.0000000000
H -1.6920979552 1.0731850701 0.0000000000
O 1.4358192972 0.0001651422 0.0000000000
H 2.1431012907 0.8487873957 0.0000000000
H 2.1384300481 -0.8485884979 0.0000000000
6
Properties=species:S:1:pos:R:3 frame=22 source="RHF force VV displacement with documented visual amplification" pbc="F F F"
O -1.4593183940 -0.0123647933 0.0000000000
H -0.3255479180 0.0321897161 0.0000000000
H -1.6923401876 1.0874860099 0.0000000000
O 1.4344365982 0.0001812445 0.0000000000
H 2.1535548104 0.8577674215 0.0000000000
H 2.1484280952 -0.8575491300 0.0000000000
6
Properties=species:S:1:pos:R:3 frame=23 source="RHF force VV displacement with documented visual amplification" pbc="F F F"
O -1.4601847736 -0.0135144125 0.0000000000
H -0.3099790261 0.0351825616 0.0000000000
H -1.6925936867 1.1024521097 0.0000000000
O 1.4329895877 0.0001980957 0.0000000000
H 2.1644945404 0.8671651228 0.0000000000
H 2.1588911678 -0.8669265357 0.0000000000
6
Properties=species:S:1:pos:R:3 frame=24 source="RHF force VV displacement with documented visual amplification" pbc="F F F"
O -1.4610896590 -0.0147151259 0.0000000000
H -0.2937181834 0.0383084225 0.0000000000
H -1.6928584525 1.1180833695 0.0000000000
O 1.4314782657 0.0002156959 0.0000000000
H 2.1759204806 0.8769804999 0.0000000000
H 2.1698192658 -0.8767207150 0.0000000000
