6
Properties=species:S:1:pos:R:3:velocities:R:3:forces:R:3 ionic_step=0 energy_eh=-149.93495425215042 scf_frames=12 pbc="F F F"
O       -1.45000000      -0.10000000      -0.10000000      -0.00148497       0.00444612       0.00088924      -0.00623809      -0.00580367      -0.00237120
H       -0.55676411      -0.44736951       0.14812108       0.01304115      -0.01787290      -0.00401619      -0.00148755       0.01168899       0.00112009
H       -1.51442373       0.72891372       0.43744919      -0.01029976       0.00395267       0.00432388       0.00743778      -0.00363564       0.00015316
O        1.42000000       0.18000000       0.20000000       0.00197980      -0.00442163      -0.00204273      -0.00534142      -0.00164621      -0.00117346
H        2.03384646       0.79622877       0.67281563      -0.00498974       0.00145283      -0.00475844       0.00049651      -0.00625508       0.00035437
H        1.79662634      -0.70860879       0.42051533      -0.00560560       0.01207879       0.02275904       0.00513277       0.00565161       0.00191704
6
Properties=species:S:1:pos:R:3:velocities:R:3:forces:R:3 ionic_step=1 energy_eh=-149.9345535325172 scf_frames=11 pbc="F F F"
O       -1.45076667      -0.09779944      -0.09956457      -0.00151758       0.00431933       0.00086205       0.00203235      -0.01055000      -0.00113544
H       -0.55033506      -0.45558678       0.14618190       0.01140038      -0.01428093      -0.00393812      -0.01184637       0.01750160      -0.00048571
H       -1.51911599       0.73066637       0.43962055      -0.00823079       0.00293080       0.00440469       0.00937597      -0.00466865       0.00050356
O        1.42096920       0.17778280       0.19897409       0.00187736      -0.00440210      -0.00207412      -0.00787239       0.00416503      -0.00287476
H        2.03138214       0.79657033       0.67045821      -0.00483361       0.00008940      -0.00462753       0.00077231      -0.00482498       0.00070946
H        1.79413934      -0.70222167       0.43201280      -0.00404641       0.01257452       0.02339891       0.00753813      -0.00162300       0.00328288
6
Properties=species:S:1:pos:R:3:velocities:R:3:forces:R:3 ionic_step=2 energy_eh=-149.93401410293995 scf_frames=11 pbc="F F F"
O       -1.45151758      -0.09568067      -0.09913795      -0.00143827       0.00412571       0.00084966       0.00819690      -0.01442467      -0.00046325
H       -0.54536373      -0.46165044       0.14418296       0.00753766      -0.00943164      -0.00419518      -0.01954448       0.02190672      -0.00160332
H       -1.52265452       0.73184452       0.44185388      -0.00574834       0.00171944       0.00458109       0.01079798      -0.00517563       0.00093001
O        1.42187736       0.17559790       0.19792588       0.00173843      -0.00430123      -0.00213154      -0.01004706       0.00884622      -0.00453249
H        2.02901285       0.79631817       0.66818810      -0.00459372      -0.00086850      -0.00439885       0.00117715      -0.00295957       0.00114898
H        1.79257993      -0.69603427       0.44391424      -0.00195973       0.01136663       0.02435908       0.00941951      -0.00819308       0.00452007
6
Properties=species:S:1:pos:R:3:velocities:R:3:forces:R:3 ionic_step=3 energy_eh=-149.9335979259166 scf_frames=11 pbc="F F F"
O       -1.45220494      -0.09367373      -0.09871492      -0.00128561       0.00388256       0.00084260       0.01149469      -0.01693786      -0.00044722
H       -0.54279739      -0.46501842       0.14198672       0.00220905      -0.00372672      -0.00464882      -0.02375916       0.02445500      -0.00208325
H       -1.52486433       0.73238581       0.44420164      -0.00298507       0.00044266       0.00486505       0.01165804      -0.00520026       0.00137759
O        1.42270763       0.17348157       0.19684254       0.00157229      -0.00414431      -0.00221123      -0.01138290       0.01139445      -0.00574638
H        2.02678842       0.79570183       0.66605937      -0.00424660      -0.00133482      -0.00405967       0.00164382      -0.00083002       0.00160736
H        1.79217961      -0.69085504       0.45637188       0.00047240       0.00877338       0.02556646       0.01034552      -0.01288131       0.00529189
6
Properties=species:S:1:pos:R:3:velocities:R:3:forces:R:3 ionic_step=4 energy_eh=-149.93351541020897 scf_frames=11 pbc="F F F"
O       -1.45280319      -0.09179811      -0.09829535      -0.00110675       0.00361330       0.00083083       0.01157590      -0.01779284      -0.00107110
H       -0.54315468      -0.46537716       0.13953413      -0.00368194       0.00234879      -0.00513690      -0.02411468       0.02491835      -0.00188319
H       -1.52563959       0.73228719       0.44671892      -0.00008140      -0.00078947       0.00525475       0.01193894      -0.00481285       0.00178939
O        1.42344965       0.17145359       0.19571465       0.00139504      -0.00396933      -0.00230314      -0.01148030       0.01117518      -0.00610829
H        2.02476626       0.79498335       0.66412843      -0.00379036      -0.00127201      -0.00361677       0.00206387       0.00134044       0.00199191
H        1.79305233      -0.68726089       0.46948070       0.00297797       0.00536365       0.02686752       0.01001626      -0.01482828       0.00528129
6
Properties=species:S:1:pos:R:3:velocities:R:3:forces:R:3 ionic_step=5 energy_eh=-149.93381104257512 scf_frames=11 pbc="F F F"
O       -1.45331169      -0.09006043      -0.09788409      -0.00095194       0.00334461       0.00080505       0.00839275      -0.01686441      -0.00225325
H       -0.54647934      -0.46266963       0.13684981      -0.00918008       0.00827625      -0.00549569      -0.02056662       0.02325184      -0.00103254
H       -1.52494573       0.73159634       0.44945639       0.00282056      -0.00188542       0.00573507       0.01164418      -0.00409353       0.00211397
O        1.42410267       0.16951224       0.19453940       0.00122745      -0.00381947      -0.00239173      -0.01013568       0.00815467      -0.00531837
H        2.02299806       0.79442982       0.66244259      -0.00325331      -0.00070054      -0.00310181       0.00230051       0.00330370       0.00219299
H        1.79515757      -0.68549140       0.48323940       0.00523981       0.00184674       0.02804617       0.00836486      -0.01375228       0.00429720
6
Properties=species:S:1:pos:R:3:velocities:R:3:forces:R:3 ionic_step=6 energy_eh=-149.93433561060658 scf_frames=11 pbc="F F F"
O       -1.45375512      -0.08845350      -0.09749030      -0.00086989       0.00310370       0.00075765       0.00219053      -0.01420971      -0.00386134
H       -0.55233476      -0.45710091       0.13403844      -0.01335849       0.01354829      -0.00557663      -0.01338971       0.01959206       0.00037482
H       -1.52281903       0.73040177       0.45245399       0.00558173      -0.00277305       0.00627978       0.01079485      -0.00311989       0.00231270
O        1.42467710       0.16763411       0.19332292       0.00109147      -0.00373343      -0.00245841      -0.00740411       0.00294391      -0.00328284
H        2.02151295       0.79428281       0.66102662      -0.00269762       0.00029998      -0.00257305       0.00221538       0.00482712       0.00210407
H        1.79829214      -0.68541415       0.49752688       0.00695736      -0.00108016       0.02886445       0.00559306      -0.01003348       0.00235258
