6
Properties=species:S:1:pos:R:3 frame=0 source="TIP3P O-O LJ rigid-water VV" pbc="F F F"
O -1.4500000000 0.0000000000 0.0000000000
H -0.4930000000 0.0000000000 0.0000000000
H -1.6896136639 0.9265172918 0.0000000000
O 1.4500000000 0.0000000000 0.0000000000
H 2.0358919370 0.7566899221 0.0000000000
H 2.0358919370 -0.7566899221 0.0000000000
6
Properties=species:S:1:pos:R:3 frame=1 source="TIP3P O-O LJ rigid-water VV" pbc="F F F"
O -1.4487503820 0.0000000000 0.0000000000
H -0.4917503820 0.0000000000 0.0000000000
H -1.6883640459 0.9265172918 0.0000000000
O 1.4487503820 0.0000000000 0.0000000000
H 2.0346423190 0.7566899221 0.0000000000
H 2.0346423190 -0.7566899221 0.0000000000
6
Properties=species:S:1:pos:R:3 frame=2 source="TIP3P O-O LJ rigid-water VV" pbc="F F F"
O -1.4475015279 0.0000000000 0.0000000000
H -0.4905015279 0.0000000000 0.0000000000
H -1.6871151918 0.9265172918 0.0000000000
O 1.4475015279 0.0000000000 0.0000000000
H 2.0333934649 0.7566899221 0.0000000000
H 2.0333934649 -0.7566899221 0.0000000000
6
Properties=species:S:1:pos:R:3 frame=3 source="TIP3P O-O LJ rigid-water VV" pbc="F F F"
O -1.4462534379 0.0000000000 0.0000000000
H -0.4892534379 0.0000000000 0.0000000000
H -1.6858671017 0.9265172918 0.0000000000
O 1.4462534379 0.0000000000 0.0000000000
H 2.0321453748 0.7566899221 0.0000000000
H 2.0321453748 -0.7566899221 0.0000000000
6
Properties=species:S:1:pos:R:3 frame=4 source="TIP3P O-O LJ rigid-water VV" pbc="F F F"
O -1.4450061117 0.0000000000 0.0000000000
H -0.4880061117 0.0000000000 0.0000000000
H -1.6846197756 0.9265172918 0.0000000000
O 1.4450061117 0.0000000000 0.0000000000
H 2.0308980487 0.7566899221 0.0000000000
H 2.0308980487 -0.7566899221 0.0000000000
6
Properties=species:S:1:pos:R:3 frame=5 source="TIP3P O-O LJ rigid-water VV" pbc="F F F"
O -1.4437595496 0.0000000000 0.0000000000
H -0.4867595496 0.0000000000 0.0000000000
H -1.6833732135 0.9265172918 0.0000000000
O 1.4437595496 0.0000000000 0.0000000000
H 2.0296514866 0.7566899221 0.0000000000
H 2.0296514866 -0.7566899221 0.0000000000
6
Properties=species:S:1:pos:R:3 frame=6 source="TIP3P O-O LJ rigid-water VV" pbc="F F F"
O -1.4425137514 0.0000000000 0.0000000000
H -0.4855137514 0.0000000000 0.0000000000
H -1.6821274153 0.9265172918 0.0000000000
O 1.4425137514 0.0000000000 0.0000000000
H 2.0284056884 0.7566899221 0.0000000000
H 2.0284056884 -0.7566899221 0.0000000000
6
Properties=species:S:1:pos:R:3 frame=7 source="TIP3P O-O LJ rigid-water VV" pbc="F F F"
O -1.4412687172 0.0000000000 0.0000000000
H -0.4842687172 0.0000000000 0.0000000000
H -1.6808823811 0.9265172918 0.0000000000
O 1.4412687172 0.0000000000 0.0000000000
H 2.0271606542 0.7566899221 0.0000000000
H 2.0271606542 -0.7566899221 0.0000000000
6
Properties=species:S:1:pos:R:3 frame=8 source="TIP3P O-O LJ rigid-water VV" pbc="F F F"
O -1.4400244469 0.0000000000 0.0000000000
H -0.4830244469 0.0000000000 0.0000000000
H -1.6796381108 0.9265172918 0.0000000000
O 1.4400244469 0.0000000000 0.0000000000
H 2.0259163839 0.7566899221 0.0000000000
H 2.0259163839 -0.7566899221 0.0000000000
6
Properties=species:S:1:pos:R:3 frame=9 source="TIP3P O-O LJ rigid-water VV" pbc="F F F"
O -1.4387809407 0.0000000000 0.0000000000
H -0.4817809407 0.0000000000 0.0000000000
H -1.6783946045 0.9265172918 0.0000000000
O 1.4387809407 0.0000000000 0.0000000000
H 2.0246728776 0.7566899221 0.0000000000
H 2.0246728776 -0.7566899221 0.0000000000
6
Properties=species:S:1:pos:R:3 frame=10 source="TIP3P O-O LJ rigid-water VV" pbc="F F F"
O -1.4375381983 0.0000000000 0.0000000000
H -0.4805381983 0.0000000000 0.0000000000
H -1.6771518622 0.9265172918 0.0000000000
O 1.4375381983 0.0000000000 0.0000000000
H 2.0234301353 0.7566899221 0.0000000000
H 2.0234301353 -0.7566899221 0.0000000000
6
Properties=species:S:1:pos:R:3 frame=11 source="TIP3P O-O LJ rigid-water VV" pbc="F F F"
O -1.4362962200 0.0000000000 0.0000000000
H -0.4792962200 0.0000000000 0.0000000000
H -1.6759098839 0.9265172918 0.0000000000
O 1.4362962200 0.0000000000 0.0000000000
H 2.0221881570 0.7566899221 0.0000000000
H 2.0221881570 -0.7566899221 0.0000000000
6
Properties=species:S:1:pos:R:3 frame=12 source="TIP3P O-O LJ rigid-water VV" pbc="F F F"
O -1.4350550056 0.0000000000 0.0000000000
H -0.4780550056 0.0000000000 0.0000000000
H -1.6746686695 0.9265172918 0.0000000000
O 1.4350550056 0.0000000000 0.0000000000
H 2.0209469426 0.7566899221 0.0000000000
H 2.0209469426 -0.7566899221 0.0000000000
6
Properties=species:S:1:pos:R:3 frame=13 source="TIP3P O-O LJ rigid-water VV" pbc="F F F"
O -1.4338145552 0.0000000000 0.0000000000
H -0.4768145552 0.0000000000 0.0000000000
H -1.6734282191 0.9265172918 0.0000000000
O 1.4338145552 0.0000000000 0.0000000000
H 2.0197064922 0.7566899221 0.0000000000
H 2.0197064922 -0.7566899221 0.0000000000
6
Properties=species:S:1:pos:R:3 frame=14 source="TIP3P O-O LJ rigid-water VV" pbc="F F F"
O -1.4325748687 0.0000000000 0.0000000000
H -0.4755748687 0.0000000000 0.0000000000
H -1.6721885326 0.9265172918 0.0000000000
O 1.4325748687 0.0000000000 0.0000000000
H 2.0184668057 0.7566899221 0.0000000000
H 2.0184668057 -0.7566899221 0.0000000000
6
Properties=species:S:1:pos:R:3 frame=15 source="TIP3P O-O LJ rigid-water VV" pbc="F F F"
O -1.4313359463 0.0000000000 0.0000000000
H -0.4743359463 0.0000000000 0.0000000000
H -1.6709496101 0.9265172918 0.0000000000
O 1.4313359463 0.0000000000 0.0000000000
H 2.0172278833 0.7566899221 0.0000000000
H 2.0172278833 -0.7566899221 0.0000000000
6
Properties=species:S:1:pos:R:3 frame=16 source="TIP3P O-O LJ rigid-water VV" pbc="F F F"
O -1.4300977877 0.0000000000 0.0000000000
H -0.4730977877 0.0000000000 0.0000000000
H -1.6697114516 0.9265172918 0.0000000000
O 1.4300977877 0.0000000000 0.0000000000
H 2.0159897247 0.7566899221 0.0000000000
H 2.0159897247 -0.7566899221 0.0000000000
6
Properties=species:S:1:pos:R:3 frame=17 source="TIP3P O-O LJ rigid-water VV" pbc="F F F"
O -1.4288603932 0.0000000000 0.0000000000
H -0.4718603932 0.0000000000 0.0000000000
H -1.6684740571 0.9265172918 0.0000000000
O 1.4288603932 0.0000000000 0.0000000000
H 2.0147523302 0.7566899221 0.0000000000
H 2.0147523302 -0.7566899221 0.0000000000
6
Properties=species:S:1:pos:R:3 frame=18 source="TIP3P O-O LJ rigid-water VV" pbc="F F F"
O -1.4276237626 0.0000000000 0.0000000000
H -0.4706237626 0.0000000000 0.0000000000
H -1.6672374265 0.9265172918 0.0000000000
O 1.4276237626 0.0000000000 0.0000000000
H 2.0135156996 0.7566899221 0.0000000000
H 2.0135156996 -0.7566899221 0.0000000000
6
Properties=species:S:1:pos:R:3 frame=19 source="TIP3P O-O LJ rigid-water VV" pbc="F F F"
O -1.4263878960 0.0000000000 0.0000000000
H -0.4693878960 0.0000000000 0.0000000000
H -1.6660015599 0.9265172918 0.0000000000
O 1.4263878960 0.0000000000 0.0000000000
H 2.0122798330 0.7566899221 0.0000000000
H 2.0122798330 -0.7566899221 0.0000000000
6
Properties=species:S:1:pos:R:3 frame=20 source="TIP3P O-O LJ rigid-water VV" pbc="F F F"
O -1.4251527934 0.0000000000 0.0000000000
H -0.4681527934 0.0000000000 0.0000000000
H -1.6647664572 0.9265172918 0.0000000000
O 1.4251527934 0.0000000000 0.0000000000
H 2.0110447303 0.7566899221 0.0000000000
H 2.0110447303 -0.7566899221 0.0000000000
6
Properties=species:S:1:pos:R:3 frame=21 source="TIP3P O-O LJ rigid-water VV" pbc="F F F"
O -1.4239184547 0.0000000000 0.0000000000
H -0.4669184547 0.0000000000 0.0000000000
H -1.6635321186 0.9265172918 0.0000000000
O 1.4239184547 0.0000000000 0.0000000000
H 2.0098103917 0.7566899221 0.0000000000
H 2.0098103917 -0.7566899221 0.0000000000
6
Properties=species:S:1:pos:R:3 frame=22 source="TIP3P O-O LJ rigid-water VV" pbc="F F F"
O -1.4226848800 0.0000000000 0.0000000000
H -0.4656848800 0.0000000000 0.0000000000
H -1.6622985438 0.9265172918 0.0000000000
O 1.4226848800 0.0000000000 0.0000000000
H 2.0085768170 0.7566899221 0.0000000000
H 2.0085768170 -0.7566899221 0.0000000000
6
Properties=species:S:1:pos:R:3 frame=23 source="TIP3P O-O LJ rigid-water VV" pbc="F F F"
O -1.4214520692 0.0000000000 0.0000000000
H -0.4644520692 0.0000000000 0.0000000000
H -1.6610657331 0.9265172918 0.0000000000
O 1.4214520692 0.0000000000 0.0000000000
H 2.0073440062 0.7566899221 0.0000000000
H 2.0073440062 -0.7566899221 0.0000000000
6
Properties=species:S:1:pos:R:3 frame=24 source="TIP3P O-O LJ rigid-water VV" pbc="F F F"
O -1.4202200224 0.0000000000 0.0000000000
H -0.4632200224 0.0000000000 0.0000000000
H -1.6598336863 0.9265172918 0.0000000000
O 1.4202200224 0.0000000000 0.0000000000
H 2.0061119594 0.7566899221 0.0000000000
H 2.0061119594 -0.7566899221 0.0000000000
