6
Properties=species:S:1:pos:R:3 frame=0 source="TIP3P O-O LJ rigid-water VV" pbc="F F F"
O -1.4500000000 0.0000000000 0.0000000000
H -0.4930000000 0.0000000000 0.0000000000
H -1.6896136639 0.9265172918 0.0000000000
O 1.4500000000 0.0000000000 0.0000000000
H 2.0358919370 0.7566899221 0.0000000000
H 2.0358919370 -0.7566899221 0.0000000000
6
Properties=species:S:1:pos:R:3 frame=1 source="TIP3P O-O LJ rigid-water VV" pbc="F F F"
O -1.4202200224 0.0000000000 0.0000000000
H -0.4632200224 0.0000000000 0.0000000000
H -1.6598336863 0.9265172918 0.0000000000
O 1.4202200224 0.0000000000 0.0000000000
H 2.0061119594 0.7566899221 0.0000000000
H 2.0061119594 -0.7566899221 0.0000000000
