21
2,4,6-TNT PBE0/def2-SVP geometry; C2-N2 selected for dissociation
C -0.8289904917 -0.0024715304 -0.1397440954
C -0.0054119062 -0.1225430957 0.9995284072
C 1.3970833597 -0.0664442055 0.9294433039
C 2.0066811731 0.1397505115 -0.3122659516
C 1.2329739198 0.2995535425 -1.4663065154
C -0.1671986125 0.2382765982 -1.3623320746
C -2.3307000974 -0.1022863536 -0.0521535720
H 1.9932168935 -0.1778526311 1.8358399400
H 1.7006055707 0.4747334722 -2.4358293590
H -2.6432601432 -0.7819398169 0.7470516445
H -2.7606466031 -0.5202480444 -0.9680185220
H -2.7642064319 0.8860173307 0.1283228265
N -0.5855378661 -0.3036256904 2.3251879941
N 3.4717492166 0.2063087261 -0.4024509616
N -0.9223940416 0.4475883768 -2.5922075751
O -0.2156492114 -1.2956985963 2.9638096740
O -1.3855431853 0.5560146908 2.7117934250
O 4.1151729425 0.0688823714 0.6454717940
O 3.9668618432 0.3995106129 -1.5198404914
O -0.6611816037 -0.3021003474 -3.5401529067
O -1.7491428225 1.3667880623 -2.5956127675
