3
Lattice="12.0 0.0 0.0 0.0 12.0 0.0 0.0 0.0 12.0" Properties=species:S:1:pos:R:3 pbc="T T T"
O        2.00279861       5.06513436      10.60402245
H        2.10137120       5.59813181      10.96333103
H        2.49583019       5.53673383       9.93264652
3
Lattice="12.0 0.0 0.0 0.0 12.0 0.0 0.0 0.0 12.0" Properties=species:S:1:pos:R:3 pbc="T T T"
O        2.09509216       5.05832211      10.60284904
H        2.01389128       5.69844559      10.96742262
H        2.56884083       5.54574945       9.92889902
3
Lattice="12.0 0.0 0.0 0.0 12.0 0.0 0.0 0.0 12.0" Properties=species:S:1:pos:R:3 pbc="T T T"
O        2.18816755       5.05283250      10.59978863
H        1.92519399       5.79640980      10.97320541
H        2.64228700       5.55572116       9.92368926
3
Lattice="12.0 0.0 0.0 0.0 12.0 0.0 0.0 0.0 12.0" Properties=species:S:1:pos:R:3 pbc="T T T"
O        2.28197838       5.04866931      10.59484333
H        1.83535854       5.89195674      10.98067541
H        2.71613588       5.56664207       9.91702085
3
Lattice="12.0 0.0 0.0 0.0 12.0 0.0 0.0 0.0 12.0" Properties=species:S:1:pos:R:3 pbc="T T T"
O        2.37647775       5.04583542      10.58801657
H        1.74446496       5.98502039      10.98982744
H        2.79035436       5.57850462       9.90889838
3
Lattice="12.0 0.0 0.0 0.0 12.0 0.0 0.0 0.0 12.0" Properties=species:S:1:pos:R:3 pbc="T T T"
O        2.47161827       5.04433279      10.57931306
H        1.65259399       6.07553642      11.00065519
H        2.86490908       5.59130061       9.89932749
3
Lattice="12.0 0.0 0.0 0.0 12.0 0.0 0.0 0.0 12.0" Properties=species:S:1:pos:R:3 pbc="T T T"
O        2.56735213       5.04416246      10.56873881
H        1.55982704       6.16344228      11.01315118
H        2.93976644       5.60502121       9.88831477
3
Lattice="12.0 0.0 0.0 0.0 12.0 0.0 0.0 0.0 12.0" Properties=species:S:1:pos:R:3 pbc="T T T"
O        2.66363108       5.04532454      10.55630113
H        1.46624616       6.24867722      11.02730676
H        3.01489264       5.61965693       9.87586784
3
Lattice="12.0 0.0 0.0 0.0 12.0 0.0 0.0 0.0 12.0" Properties=species:S:1:pos:R:3 pbc="T T T"
O        2.76040653       5.04781824      10.54200862
H        1.37193394       6.33118233      11.04311215
H        3.09025367       5.63519766       9.86199530
3
Lattice="12.0 0.0 0.0 0.0 12.0 0.0 0.0 0.0 12.0" Properties=species:S:1:pos:R:3 pbc="T T T"
O        2.85762951       5.05164183      10.52587116
H        1.27697350       6.41090059      11.06055643
H        3.16581540       5.65163266       9.84670674
3
Lattice="12.0 0.0 0.0 0.0 12.0 0.0 0.0 0.0 12.0" Properties=species:S:1:pos:R:3 pbc="T T T"
O        2.95525077       5.05679267      10.50789989
H        1.18144839       6.48777692      11.07962755
H        3.24154352       5.66895056       9.83001272
3
Lattice="12.0 0.0 0.0 0.0 12.0 0.0 0.0 0.0 12.0" Properties=species:S:1:pos:R:3 pbc="T T T"
O        3.05322077       5.06326719      10.48810725
H        1.08544255       6.56175817      11.10031232
H        3.31740363       5.68713941       9.81192479
3
Lattice="12.0 0.0 0.0 0.0 12.0 0.0 0.0 0.0 12.0" Properties=species:S:1:pos:R:3 pbc="T T T"
O        3.15148972       5.07106093      10.46650690
H        0.98904026       6.63279323      11.12259646
H        3.39336123       5.70618662       9.79245544
3
Lattice="12.0 0.0 0.0 0.0 12.0 0.0 0.0 0.0 12.0" Properties=species:S:1:pos:R:3 pbc="T T T"
O        3.25000765       5.08016849      10.44311378
H        0.89232608       6.70083300      11.14646455
H        3.46938176       5.72607904       9.77161813
3
Lattice="12.0 0.0 0.0 0.0 12.0 0.0 0.0 0.0 12.0" Properties=species:S:1:pos:R:3 pbc="T T T"
O        3.34872439       5.09058358      10.41794404
H        0.79538477       6.76583046      11.17190010
H        3.54543060       5.74680292       9.74942726
3
Lattice="12.0 0.0 0.0 0.0 12.0 0.0 0.0 0.0 12.0" Properties=species:S:1:pos:R:3 pbc="T T T"
O        3.44758965       5.10229901      10.39101510
H        0.69830124       6.82774069      11.19888555
H        3.62147312       5.76834394       9.72589816
3
Lattice="12.0 0.0 0.0 0.0 12.0 0.0 0.0 0.0 12.0" Properties=species:S:1:pos:R:3 pbc="T T T"
O        3.54655303       5.11530668      10.36234555
H        0.60116054       6.88652090      11.22740222
H        3.69747471       5.79068721       9.70104710
3
Lattice="12.0 0.0 0.0 0.0 12.0 0.0 0.0 0.0 12.0" Properties=species:S:1:pos:R:3 pbc="T T T"
O        3.64556408       5.12959760      10.33195521
H        0.50404771       6.94213048      11.25743043
H        3.77340076       5.81381728       9.67489125
3
Lattice="12.0 0.0 0.0 0.0 12.0 0.0 0.0 0.0 12.0" Properties=species:S:1:pos:R:3 pbc="T T T"
O        3.74457228       5.14516189      10.29986508
H        0.40704780       6.99453098      11.28894941
H        3.84921674       5.83771818       9.64744868
3
Lattice="12.0 0.0 0.0 0.0 12.0 0.0 0.0 0.0 12.0" Properties=species:S:1:pos:R:3 pbc="T T T"
O        3.84352715       5.16198880      10.26609735
H        0.31024578       7.04368620      11.32193738
H        3.92488816       5.86237339       9.61873836
3
Lattice="12.0 0.0 0.0 0.0 12.0 0.0 0.0 0.0 12.0" Properties=species:S:1:pos:R:3 pbc="T T T"
O        3.94237822       5.18006669      10.23067534
H        0.21372647       7.08956216      11.35637155
H        4.00038067       5.88776586       9.58878014
3
Lattice="12.0 0.0 0.0 0.0 12.0 0.0 0.0 0.0 12.0" Properties=species:S:1:pos:R:3 pbc="T T T"
O        4.04107510       5.19938307      10.19362354
H        0.11757450       7.13212716      11.39222812
H        4.07566002       5.91387805       9.55759472
3
Lattice="12.0 0.0 0.0 0.0 12.0 0.0 0.0 0.0 12.0" Properties=species:S:1:pos:R:3 pbc="T T T"
O        4.13956752       5.21992460      10.15496755
H        0.02187426       7.17135179      11.42948231
H        4.15069211       5.94069191       9.52520364
3
Lattice="12.0 0.0 0.0 0.0 12.0 0.0 0.0 0.0 12.0" Properties=species:S:1:pos:R:3 pbc="T T T"
O        4.23780534       5.24167708      10.11473409
H       11.92670980       7.20720893      11.46810836
H        4.22544302       5.96818891       9.49162930
3
Lattice="12.0 0.0 0.0 0.0 12.0 0.0 0.0 0.0 12.0" Properties=species:S:1:pos:R:3 pbc="T T T"
O        4.33573859       5.26462547      10.07295097
H       11.83216483       7.23967380      11.50807960
H        4.29987901       5.99635005       9.45689490
3
Lattice="12.0 0.0 0.0 0.0 12.0 0.0 0.0 0.0 12.0" Properties=species:S:1:pos:R:3 pbc="T T T"
O        4.43331752       5.28875392      10.02964705
H       11.73832261       7.26872397      11.54936838
H        4.37396657       6.02515586       9.42102444
3
Lattice="12.0 0.0 0.0 0.0 12.0 0.0 0.0 0.0 12.0" Properties=species:S:1:pos:R:3 pbc="T T T"
O        4.53049262       5.31404575       9.98485227
H       11.64526592       7.29433937      11.59194619
H        4.44767243       6.05458645       9.38404271
3
Lattice="12.0 0.0 0.0 0.0 12.0 0.0 0.0 0.0 12.0" Properties=species:S:1:pos:R:3 pbc="T T T"
O        4.62721465       5.34048347       9.93859759
H       11.55307701       7.31650228      11.63578359
H        4.52096357       6.08462146       9.34597528
3
Lattice="12.0 0.0 0.0 0.0 12.0 0.0 0.0 0.0 12.0" Properties=species:S:1:pos:R:3 pbc="T T T"
O        4.72343472       5.36804883       9.89091497
H       11.46183751       7.33519739      11.68085028
H        4.59380727       6.11524014       9.30684844
3
Lattice="12.0 0.0 0.0 0.0 12.0 0.0 0.0 0.0 12.0" Properties=species:S:1:pos:R:3 pbc="T T T"
O        4.81910423       5.39672277       9.84183736
H       11.37162841       7.35041179      11.72711513
H        4.66617113       6.14642133       9.26668924
3
Lattice="12.0 0.0 0.0 0.0 12.0 0.0 0.0 0.0 12.0" Properties=species:S:1:pos:R:3 pbc="T T T"
O        4.91417502       5.42648547       9.79139869
H       11.28252997       7.36213495      11.77454615
H        4.73802305       6.17814349       9.22552544
3
Lattice="12.0 0.0 0.0 0.0 12.0 0.0 0.0 0.0 12.0" Properties=species:S:1:pos:R:3 pbc="T T T"
O        5.00859929       5.45731636       9.73963380
H       11.19462171       7.37035878      11.82311058
H        4.80933130       6.21038469       9.18338548
3
Lattice="12.0 0.0 0.0 0.0 12.0 0.0 0.0 0.0 12.0" Properties=species:S:1:pos:R:3 pbc="T T T"
O        5.10232973       5.48919414       9.68657848
H       11.10798229       7.37507759      11.87277484
H        4.88006454       6.24312264       9.14029848
3
Lattice="12.0 0.0 0.0 0.0 12.0 0.0 0.0 0.0 12.0" Properties=species:S:1:pos:R:3 pbc="T T T"
O        5.19531948       5.52209678       9.63226939
H       11.02268954       7.37628812      11.92350461
H        4.95019181       6.27633472       9.09629422
3
Lattice="12.0 0.0 0.0 0.0 12.0 0.0 0.0 0.0 12.0" Properties=species:S:1:pos:R:3 pbc="T T T"
O        5.28752221       5.55600153       9.57674407
H       10.93882032       7.37398953      11.97526484
H        5.01968258       6.30999798       9.05140312
3
Lattice="12.0 0.0 0.0 0.0 12.0 0.0 0.0 0.0 12.0" Properties=species:S:1:pos:R:3 pbc="T T T"
O        5.37889212       5.59088497       9.52004088
H       10.85645051       7.36818342       0.02801975
H        5.08850674       6.34408916       9.00565619
3
Lattice="12.0 0.0 0.0 0.0 12.0 0.0 0.0 0.0 12.0" Properties=species:S:1:pos:R:3 pbc="T T T"
O        5.46938400       5.62672299       9.46219902
H       10.77565498       7.35887379       0.08173288
H        5.15663466       6.37858469       8.95908505
3
Lattice="12.0 0.0 0.0 0.0 12.0 0.0 0.0 0.0 12.0" Properties=species:S:1:pos:R:3 pbc="T T T"
O        5.55895324       5.66349082       9.40325845
H       10.69650749       7.34606709       0.13636712
H        5.22403718       6.41346074       8.91172189
3
Lattice="12.0 0.0 0.0 0.0 12.0 0.0 0.0 0.0 12.0" Properties=species:S:1:pos:R:3 pbc="T T T"
O        5.64755586       5.70116304       9.34325992
H       10.61908066       7.32977215       0.19188470
H        5.29068565       6.44869320       8.86359945
3
Lattice="12.0 0.0 0.0 0.0 12.0 0.0 0.0 0.0 12.0" Properties=species:S:1:pos:R:3 pbc="T T T"
O        5.73514856       5.73971364       9.28224488
H       10.54344594       7.31000024       0.24824726
H        5.35655195       6.48425772       8.81475097
3
Lattice="12.0 0.0 0.0 0.0 12.0 0.0 0.0 0.0 12.0" Properties=species:S:1:pos:R:3 pbc="T T T"
O        5.82168873       5.77911596       9.22025551
H       10.46967352       7.28676503       0.30541584
H        5.42160846       6.52012972       8.76521021
3
Lattice="12.0 0.0 0.0 0.0 12.0 0.0 0.0 0.0 12.0" Properties=species:S:1:pos:R:3 pbc="T T T"
O        5.90713449       5.81934276       9.15733465
H       10.39783232       7.26008257       0.36335094
H        5.48582818       6.55628442       8.71501142
3
Lattice="12.0 0.0 0.0 0.0 12.0 0.0 0.0 0.0 12.0" Properties=species:S:1:pos:R:3 pbc="T T T"
O        5.99144471       5.86036627       9.09352577
H       10.32798990       7.22997131       0.42201252
H        5.54918463       6.59269682       8.66418929
3
Lattice="12.0 0.0 0.0 0.0 12.0 0.0 0.0 0.0 12.0" Properties=species:S:1:pos:R:3 pbc="T T T"
O        6.07457907       5.90215811       9.02887298
H       10.26021248       7.19645205       0.48136004
H        5.61165197       6.62934177       8.61277893
3
Lattice="12.0 0.0 0.0 0.0 12.0 0.0 0.0 0.0 12.0" Properties=species:S:1:pos:R:3 pbc="T T T"
O        6.15649803       5.94468941       8.96342096
H       10.19456481       7.15954795       0.54135248
H        5.67320494       6.66619393       8.56081589
3
Lattice="12.0 0.0 0.0 0.0 12.0 0.0 0.0 0.0 12.0" Properties=species:S:1:pos:R:3 pbc="T T T"
O        6.23716291       5.98793077       8.89721495
H       10.13111019       7.11928453       0.60194838
H        5.73381895       6.70322785       8.50833606
3
Lattice="12.0 0.0 0.0 0.0 12.0 0.0 0.0 0.0 12.0" Properties=species:S:1:pos:R:3 pbc="T T T"
O        6.31653589       6.03185232       8.83030069
H       10.06991041       7.07568961       0.66310586
H        5.79347002       6.74041791       8.45537573
3
Lattice="12.0 0.0 0.0 0.0 12.0 0.0 0.0 0.0 12.0" Properties=species:S:1:pos:R:3 pbc="T T T"
O        6.39458004       6.07642369       8.76272443
H       10.01102568       7.02879332       0.72478266
H        5.85213486       6.77773843       8.40197148
3
Lattice="12.0 0.0 0.0 0.0 12.0 0.0 0.0 0.0 12.0" Properties=species:S:1:pos:R:3 pbc="T T T"
O        6.47125936       6.12161408       8.69453288
H        9.95451464       6.97862806       0.78693615
H        5.90979086       6.81516361       8.34816023
3
Lattice="12.0 0.0 0.0 0.0 12.0 0.0 0.0 0.0 12.0" Properties=species:S:1:pos:R:3 pbc="T T T"
O        6.54653878       6.16739227       8.62577315
H        9.90043425       6.92522850       0.84952339
H        5.96641609       6.85266759       8.29397916
3
Lattice="12.0 0.0 0.0 0.0 12.0 0.0 0.0 0.0 12.0" Properties=species:S:1:pos:R:3 pbc="T T T"
O        6.62038419       6.21372662       8.55649278
H        9.84883984       6.86863156       0.91250110
H        6.02198936       6.89022444       8.23946573
3
Lattice="12.0 0.0 0.0 0.0 12.0 0.0 0.0 0.0 12.0" Properties=species:S:1:pos:R:3 pbc="T T T"
O        6.69276251       6.26058509       8.48673964
H        9.79978497       6.80887634       0.97582578
H        6.07649018       6.92780822       8.18465760
3
Lattice="12.0 0.0 0.0 0.0 12.0 0.0 0.0 0.0 12.0" Properties=species:S:1:pos:R:3 pbc="T T T"
O        6.76364162       6.30793532       8.41656193
H        9.75332149       6.74600414       1.03945366
H        6.12989881       6.96539294       8.12959265
3
Lattice="12.0 0.0 0.0 0.0 12.0 0.0 0.0 0.0 12.0" Properties=species:S:1:pos:R:3 pbc="T T T"
O        6.83299049       6.35574458       8.34600816
H        9.70949942       6.68005842       1.10334077
H        6.18219628       7.00295264       8.07430894
3
Lattice="12.0 0.0 0.0 0.0 12.0 0.0 0.0 0.0 12.0" Properties=species:S:1:pos:R:3 pbc="T T T"
O        6.90077910       6.40397982       8.27512708
H        9.66836699       6.61108474       1.16744294
H        6.23336437       7.04046135       8.01884467
3
Lattice="12.0 0.0 0.0 0.0 12.0 0.0 0.0 0.0 12.0" Properties=species:S:1:pos:R:3 pbc="T T T"
O        6.96697854       6.45260771       8.20396768
H        9.62997055       6.53913077       1.23171589
H        6.28338564       7.07789316       7.96323818
3
Lattice="12.0 0.0 0.0 0.0 12.0 0.0 0.0 0.0 12.0" Properties=species:S:1:pos:R:3 pbc="T T T"
O        7.03156099       6.50159465       8.13257914
H        9.59435455       6.46424625       1.29611519
H        6.33224345       7.11522219       7.90752789
3
Lattice="12.0 0.0 0.0 0.0 12.0 0.0 0.0 0.0 12.0" Properties=species:S:1:pos:R:3 pbc="T T T"
O        7.09449974       6.55090678       8.06101080
H        9.56156155       6.38648291       1.36059634
H        6.37992197       7.15242264       7.85175231
3
Lattice="12.0 0.0 0.0 0.0 12.0 0.0 0.0 0.0 12.0" Properties=species:S:1:pos:R:3 pbc="T T T"
O        7.15576922       6.60051001       7.98931211
H        9.53163214       6.30589452       1.42511477
H        6.42640618       7.18946882       7.79594998
3
Lattice="12.0 0.0 0.0 0.0 12.0 0.0 0.0 0.0 12.0" Properties=species:S:1:pos:R:3 pbc="T T T"
O        7.21534502       6.65037008       7.91753263
H        9.50460491       6.22253675       1.48962590
H        6.47168187       7.22633511       7.74015946
3
Lattice="12.0 0.0 0.0 0.0 12.0 0.0 0.0 0.0 12.0" Properties=species:S:1:pos:R:3 pbc="T T T"
O        7.27320389       6.70045251       7.84572196
H        9.48051650       6.13646722       1.55408515
H        6.51573568       7.26299603       7.68441932
3
Lattice="12.0 0.0 0.0 0.0 12.0 0.0 0.0 0.0 12.0" Properties=species:S:1:pos:R:3 pbc="T T T"
O        7.32932378       6.75072271       7.77392973
H        9.45940146       6.04774541       1.61844795
H        6.55855510       7.29942626       7.62876807
3
Lattice="12.0 0.0 0.0 0.0 12.0 0.0 0.0 0.0 12.0" Properties=species:S:1:pos:R:3 pbc="T T T"
O        7.38368382       6.80114592       7.70220556
H        9.44129232       5.95643264       1.68266984
H        6.60012847       7.33560061       7.57324418
3
Lattice="12.0 0.0 0.0 0.0 12.0 0.0 0.0 0.0 12.0" Properties=species:S:1:pos:R:3 pbc="T T T"
O        7.43626438       6.85168731       7.63059902
H        9.42621952       5.86259201       1.74670644
H        6.64044497       7.37149408       7.51788602
3
Lattice="12.0 0.0 0.0 0.0 12.0 0.0 0.0 0.0 12.0" Properties=species:S:1:pos:R:3 pbc="T T T"
O        7.48704705       6.90231193       7.55915958
H        9.41421141       5.76628837       1.81051347
H        6.67949468       7.40708188       7.46273184
3
Lattice="12.0 0.0 0.0 0.0 12.0 0.0 0.0 0.0 12.0" Properties=species:S:1:pos:R:3 pbc="T T T"
O        7.53601466       6.95298481       7.48793663
H        9.40529421       5.66758829       1.87404686
H        6.71726853       7.44233939       7.40781977
3
Lattice="12.0 0.0 0.0 0.0 12.0 0.0 0.0 0.0 12.0" Properties=species:S:1:pos:R:3 pbc="T T T"
O        7.58315130       7.00367093       7.41697939
H        9.39949201       5.56655996       1.93726268
H        6.75375836       7.47724226       7.35318774
3
Lattice="12.0 0.0 0.0 0.0 12.0 0.0 0.0 0.0 12.0" Properties=species:S:1:pos:R:3 pbc="T T T"
O        7.62844232       7.05433525       7.34633688
H        9.39682676       5.46327322       2.00011726
H        6.78895686       7.51176637       7.29887353
3
Lattice="12.0 0.0 0.0 0.0 12.0 0.0 0.0 0.0 12.0" Properties=species:S:1:pos:R:3 pbc="T T T"
O        7.67187435       7.10494277       7.27605795
H        9.39731822       5.35779944       2.06256715
H        6.82285764       7.54588786       7.24491466
3
Lattice="12.0 0.0 0.0 0.0 12.0 0.0 0.0 0.0 12.0" Properties=species:S:1:pos:R:3 pbc="T T T"
O        7.71343529       7.15545850       7.20619114
H        9.40098398       5.25021152       2.12456919
H        6.85545520       7.57958313       7.19134842
3
Lattice="12.0 0.0 0.0 0.0 12.0 0.0 0.0 0.0 12.0" Properties=species:S:1:pos:R:3 pbc="T T T"
O        7.75311436       7.20584754       7.13678476
H        9.40783944       5.14058380       2.18608054
H        6.88674495       7.61282892       7.13821184
3
Lattice="12.0 0.0 0.0 0.0 12.0 0.0 0.0 0.0 12.0" Properties=species:S:1:pos:R:3 pbc="T T T"
O        7.79090206       7.25607506       7.06788676
H        9.41789778       5.02899206       2.24705869
H        6.91672317       7.64560224       7.08554164
3
Lattice="12.0 0.0 0.0 0.0 12.0 0.0 0.0 0.0 12.0" Properties=species:S:1:pos:R:3 pbc="T T T"
O        7.82679020       7.30610635       6.99954476
H        9.43116999       4.91551341       2.30746149
H        6.94538709       7.67788044       7.03337422
3
Lattice="12.0 0.0 0.0 0.0 12.0 0.0 0.0 0.0 12.0" Properties=species:S:1:pos:R:3 pbc="T T T"
O        7.86077191       7.35590683       6.93180599
H        9.44766481       4.80022627       2.36724720
H        6.97273483       7.70964122       6.98174562
3
Lattice="12.0 0.0 0.0 0.0 12.0 0.0 0.0 0.0 12.0" Properties=species:S:1:pos:R:3 pbc="T T T"
O        7.89284163       7.40544209       6.86471727
H        9.46738878       4.68321033       2.42637449
H        6.99876540       7.74086262       6.93069154
3
Lattice="12.0 0.0 0.0 0.0 12.0 0.0 0.0 0.0 12.0" Properties=species:S:1:pos:R:3 pbc="T T T"
O        7.92299514       7.45467790       6.79832496
H        9.49034619       4.56454645       2.48480252
H        7.02347876       7.77152307       6.88024725
3
Lattice="12.0 0.0 0.0 0.0 12.0 0.0 0.0 0.0 12.0" Properties=species:S:1:pos:R:3 pbc="T T T"
O        7.95122950       7.50358022       6.73267494
H        9.51653911       4.44431665       2.54249090
H        7.04687574       7.80160138       6.83044761
3
Lattice="12.0 0.0 0.0 0.0 12.0 0.0 0.0 0.0 12.0" Properties=species:S:1:pos:R:3 pbc="T T T"
O        7.97754315       7.55211526       6.66781259
H        9.54596736       4.32260400       2.59939975
H        7.06895811       7.83107677       6.78132705
3
Lattice="12.0 0.0 0.0 0.0 12.0 0.0 0.0 0.0 12.0" Properties=species:S:1:pos:R:3 pbc="T T T"
O        8.00193583       7.60024948       6.60378273
H        9.57862853       4.19949263       2.65548976
H        7.08972853       7.85992885       6.73291951
3
Lattice="12.0 0.0 0.0 0.0 12.0 0.0 0.0 0.0 12.0" Properties=species:S:1:pos:R:3 pbc="T T T"
O        8.02440860       7.64794962       6.54062960
H        9.61451798       4.07506761       2.71072216
H        7.10919058       7.88813770       6.68525844
3
Lattice="12.0 0.0 0.0 0.0 12.0 0.0 0.0 0.0 12.0" Properties=species:S:1:pos:R:3 pbc="T T T"
O        8.04496386       7.69518269       6.47839687
H        9.65362883       3.94941494       2.76505877
H        7.12734873       7.91568381       6.63837678
3
Lattice="12.0 0.0 0.0 0.0 12.0 0.0 0.0 0.0 12.0" Properties=species:S:1:pos:R:3 pbc="T T T"
O        8.06360534       7.74191608       6.41712753
H        9.69595198       3.82262146       2.81846205
H        7.14420837       7.94254815       6.59230694
3
Lattice="12.0 0.0 0.0 0.0 12.0 0.0 0.0 0.0 12.0" Properties=species:S:1:pos:R:3 pbc="T T T"
O        8.08033807       7.78811747       6.35686393
H        9.74147612       3.69477479       2.87089509
H        7.15977577       7.96871216       6.54708074
3
Lattice="12.0 0.0 0.0 0.0 12.0 0.0 0.0 0.0 12.0" Properties=species:S:1:pos:R:3 pbc="T T T"
O        8.09516843       7.83375494       6.29764771
H        9.79018770       3.56596329       2.92232164
H        7.17405809       7.99415775       6.50272945
3
Lattice="12.0 0.0 0.0 0.0 12.0 0.0 0.0 0.0 12.0" Properties=species:S:1:pos:R:3 pbc="T T T"
O        8.10810410       7.87879695       6.23951981
H        9.84207099       3.43627597       2.97270618
H        7.18706341       8.01886734       6.45928372
3
Lattice="12.0 0.0 0.0 0.0 12.0 0.0 0.0 0.0 12.0" Properties=species:S:1:pos:R:3 pbc="T T T"
O        8.11915405       7.92321236       6.18252038
H        9.89710806       3.30580247       3.02201388
H        7.19880065       8.04282385       6.41677357
3
Lattice="12.0 0.0 0.0 0.0 12.0 0.0 0.0 0.0 12.0" Properties=species:S:1:pos:R:3 pbc="T T T"
O        8.12832858       7.96697049       6.12668883
H        9.95527881       3.17463295       3.07021066
H        7.20927964       8.06601072       6.37522839
3
Lattice="12.0 0.0 0.0 0.0 12.0 0.0 0.0 0.0 12.0" Properties=species:S:1:pos:R:3 pbc="T T T"
O        8.13563929       8.01004109       6.07206375
H       10.01656096       3.04285807       3.11726322
H        7.21851105       8.08841193       6.33467687
3
Lattice="12.0 0.0 0.0 0.0 12.0 0.0 0.0 0.0 12.0" Properties=species:S:1:pos:R:3 pbc="T T T"
O        8.14109904       8.05239440       6.01868287
H       10.08093008       2.91056889       3.16313904
H        7.22650645       8.11001200       6.29514705
3
Lattice="12.0 0.0 0.0 0.0 12.0 0.0 0.0 0.0 12.0" Properties=species:S:1:pos:R:3 pbc="T T T"
O        8.14472199       8.09400115       5.96658309
H       10.14835962       2.77785684       3.20780640
H        7.23327822       8.13079600       6.25666625
3
Lattice="12.0 0.0 0.0 0.0 12.0 0.0 0.0 0.0 12.0" Properties=species:S:1:pos:R:3 pbc="T T T"
O        8.14652356       8.13483258       5.91580042
H       10.21882091       2.64481364       3.25123446
H        7.23883962       8.15074956       6.21926106
3
Lattice="12.0 0.0 0.0 0.0 12.0 0.0 0.0 0.0 12.0" Properties=species:S:1:pos:R:3 pbc="T T T"
O        8.14652044       8.17486047       5.86636996
H       10.29228318       2.51153122       3.29339318
H        7.24320474       8.16985891       6.18295734
3
Lattice="12.0 0.0 0.0 0.0 12.0 0.0 0.0 0.0 12.0" Properties=species:S:1:pos:R:3 pbc="T T T"
O        8.14473056       8.21405716       5.81832586
H       10.36871359       2.37810171       3.33425344
H        7.24638848       8.18811082       6.14778016
3
Lattice="12.0 0.0 0.0 0.0 12.0 0.0 0.0 0.0 12.0" Properties=species:S:1:pos:R:3 pbc="T T T"
O        8.14117308       8.25239557       5.77170133
H       10.44807725       2.24461732       3.37378699
H        7.24840658       8.20549269       6.11375384
3
Lattice="12.0 0.0 0.0 0.0 12.0 0.0 0.0 0.0 12.0" Properties=species:S:1:pos:R:3 pbc="T T T"
O        8.13586839       8.28984919       5.72652859
H       10.53033722       2.11117029       3.41196652
H        7.24927555       8.22199251       6.08090190
3
Lattice="12.0 0.0 0.0 0.0 12.0 0.0 0.0 0.0 12.0" Properties=species:S:1:pos:R:3 pbc="T T T"
O        8.12883809       8.32639214       5.68283885
H       10.61545461       1.97785285       3.44876563
H        7.24901275       8.23759886       6.04924705
3
Lattice="12.0 0.0 0.0 0.0 12.0 0.0 0.0 0.0 12.0" Properties=species:S:1:pos:R:3 pbc="T T T"
O        8.12010495       8.36199917       5.64066232
H       10.70338849       1.84475713       3.48415891
H        7.24763626       8.25230097       6.01881115
3
Lattice="12.0 0.0 0.0 0.0 12.0 0.0 0.0 0.0 12.0" Properties=species:S:1:pos:R:3 pbc="T T T"
O        8.10969295       8.39664567       5.60002815
H       10.79409605       1.71197513       3.51812188
H        7.24516498       8.26608868       5.98961524
3
Lattice="12.0 0.0 0.0 0.0 12.0 0.0 0.0 0.0 12.0" Properties=species:S:1:pos:R:3 pbc="T T T"
O        8.09762720       8.43030770       5.56096440
H       10.88753251       1.57959860       3.55063107
H        7.24161853       8.27895245       5.96167950
3
Lattice="12.0 0.0 0.0 0.0 12.0 0.0 0.0 0.0 12.0" Properties=species:S:1:pos:R:3 pbc="T T T"
O        8.08393398       8.46296199       5.52349808
H       10.98365123       1.44771902       3.58166403
H        7.23701731       8.29088340       5.93502323
3
Lattice="12.0 0.0 0.0 0.0 12.0 0.0 0.0 0.0 12.0" Properties=species:S:1:pos:R:3 pbc="T T T"
O        8.06864067       8.49458597       5.48765509
H       11.08240370       1.31642755       3.61119929
H        7.23138240       8.30187328       5.90966486
3
Lattice="12.0 0.0 0.0 0.0 12.0 0.0 0.0 0.0 12.0" Properties=species:S:1:pos:R:3 pbc="T T T"
O        8.05177578       8.52515779       5.45346019
H       11.18373962       1.18581491       3.63921646
H        7.22473565       8.31191450       5.88562192
3
Lattice="12.0 0.0 0.0 0.0 12.0 0.0 0.0 0.0 12.0" Properties=species:S:1:pos:R:3 pbc="T T T"
O        8.03336888       8.55465633       5.42093702
H       11.28760688       1.05597137       3.66569616
H        7.21709956       8.32100011       5.86291101
3
Lattice="12.0 0.0 0.0 0.0 12.0 0.0 0.0 0.0 12.0" Properties=species:S:1:pos:R:3 pbc="T T T"
O        8.01345062       8.58306119       5.39010805
H       11.39395161       0.92698666       3.69062010
H        7.20849735       8.32912384       5.84154784
3
Lattice="12.0 0.0 0.0 0.0 12.0 0.0 0.0 0.0 12.0" Properties=species:S:1:pos:R:3 pbc="T T T"
O        7.99205271       8.61035274       5.36099458
H       11.50271826       0.79894993       3.71397106
H        7.19895288       8.33628007       5.82154716
3
Lattice="12.0 0.0 0.0 0.0 12.0 0.0 0.0 0.0 12.0" Properties=species:S:1:pos:R:3 pbc="T T T"
O        7.96920784       8.63651213       5.33361675
H       11.61384959       0.67194967       3.73573288
H        7.18849069       8.34246386       5.80292281
3
Lattice="12.0 0.0 0.0 0.0 12.0 0.0 0.0 0.0 12.0" Properties=species:S:1:pos:R:3 pbc="T T T"
O        7.94494975       8.66152127       5.30799346
H       11.72728671       0.54607363       3.75589055
H        7.17713592       8.34767093       5.78568764
3
Lattice="12.0 0.0 0.0 0.0 12.0 0.0 0.0 0.0 12.0" Properties=species:S:1:pos:R:3 pbc="T T T"
O        7.91931312       8.68536288       5.28414243
H       11.84296917       0.42140882       3.77443011
H        7.16491436       8.35189769       5.76985358
3
Lattice="12.0 0.0 0.0 0.0 12.0 0.0 0.0 0.0 12.0" Properties=species:S:1:pos:R:3 pbc="T T T"
O        7.89233360       8.70802049       5.26208015
H       11.96083494       0.29804139       3.79133877
H        7.15185238       8.35514121       5.75543157
3
Lattice="12.0 0.0 0.0 0.0 12.0 0.0 0.0 0.0 12.0" Properties=species:S:1:pos:R:3 pbc="T T T"
O        7.86404776       8.72947843       5.24182184
H        0.08082049       0.17605660       3.80660484
H        7.13797694       8.35739926       5.74243156
3
Lattice="12.0 0.0 0.0 0.0 12.0 0.0 0.0 0.0 12.0" Properties=species:S:1:pos:R:3 pbc="T T T"
O        7.83449308       8.74972187       5.22338153
H        0.20286083       0.05553875       3.82021775
H        7.12331554       8.35867026       5.73086256
3
Lattice="12.0 0.0 0.0 0.0 12.0 0.0 0.0 0.0 12.0" Properties=species:S:1:pos:R:3 pbc="T T T"
O        7.80370791       8.76873684       5.20677195
H        0.32688955      11.93657113       3.83216812
H        7.10789626       8.35895335       5.72073254
3
Lattice="12.0 0.0 0.0 0.0 12.0 0.0 0.0 0.0 12.0" Properties=species:S:1:pos:R:3 pbc="T T T"
O        7.77173145       8.78651018       5.19200458
H        0.45283886      11.81923596       3.84244768
H        7.09174768       8.35824833       5.71204852
3
Lattice="12.0 0.0 0.0 0.0 12.0 0.0 0.0 0.0 12.0" Properties=species:S:1:pos:R:3 pbc="T T T"
O        7.73860374       8.80302961       5.17908963
H        0.58063964      11.70361432       3.85104932
H        7.07489888       8.35655568       5.70481649
3
Lattice="12.0 0.0 0.0 0.0 12.0 0.0 0.0 0.0 12.0" Properties=species:S:1:pos:R:3 pbc="T T T"
O        7.70436559       8.81828371       5.16803602
H        0.71022150      11.58978614       3.85796710
H        7.05737943       8.35387658       5.69904146
3
Lattice="12.0 0.0 0.0 0.0 12.0 0.0 0.0 0.0 12.0" Properties=species:S:1:pos:R:3 pbc="T T T"
O        7.66905860       8.83226195       5.15885140
H        0.84151281      11.47783006       3.86319624
H        7.03921938       8.35021288       5.69472741
3
Lattice="12.0 0.0 0.0 0.0 12.0 0.0 0.0 0.0 12.0" Properties=species:S:1:pos:R:3 pbc="T T T"
O        7.63272508       8.84495466       5.15154210
H        0.97444077      11.36782347       3.86673313
H        7.02044920       8.34556710       5.69187732
3
Lattice="12.0 0.0 0.0 0.0 12.0 0.0 0.0 0.0 12.0" Properties=species:S:1:pos:R:3 pbc="T T T"
O        7.59540809       8.85635307       5.14611318
H        1.10893144      11.25984239       3.86857532
H        7.00109979       8.33994246       5.69049317
3
Lattice="12.0 0.0 0.0 0.0 12.0 0.0 0.0 0.0 12.0" Properties=species:S:1:pos:R:3 pbc="T T T"
O        7.55715134       8.86644930       5.14256839
H        1.24490980      11.15396144       3.86872153
H        6.98120246       8.33334285       5.69057591
3
Lattice="12.0 0.0 0.0 0.0 12.0 0.0 0.0 0.0 12.0" Properties=species:S:1:pos:R:3 pbc="T T T"
O        7.51799919       8.87523638       5.14091019
H        1.38229980      11.05025380       3.86717167
H        6.96078887       8.32577283       5.69212548
3
Lattice="12.0 0.0 0.0 0.0 12.0 0.0 0.0 0.0 12.0" Properties=species:S:1:pos:R:3 pbc="T T T"
O        7.47799664       8.88270824       5.14113971
H        1.52102443      10.94879114       3.86392681
H        6.93989107       8.31723762       5.69514081
3
Lattice="12.0 0.0 0.0 0.0 12.0 0.0 0.0 0.0 12.0" Properties=species:S:1:pos:R:3 pbc="T T T"
O        7.43718925       8.88885970       5.14325680
H        1.66100573      10.84964358       3.85898920
H        6.91854143       8.30774313       5.69961983
3
Lattice="12.0 0.0 0.0 0.0 12.0 0.0 0.0 0.0 12.0" Properties=species:S:1:pos:R:3 pbc="T T T"
O        7.39562315       8.89368652       5.14726000
H        1.80216490      10.75287964       3.85236223
H        6.89677262       8.29729592       5.70555943
3
Lattice="12.0 0.0 0.0 0.0 12.0 0.0 0.0 0.0 12.0" Properties=species:S:1:pos:R:3 pbc="T T T"
O        7.35334500       8.89718536       5.15314654
H        1.94442230      10.65856620       3.84405050
H        6.87461763       8.28590321       5.71295551
3
Lattice="12.0 0.0 0.0 0.0 12.0 0.0 0.0 0.0 12.0" Properties=species:S:1:pos:R:3 pbc="T T T"
O        7.31040195       8.89935381       5.16091235
H        2.08769756      10.56676843       3.83405974
H        6.85210969       8.27357288       5.72180295
3
Lattice="12.0 0.0 0.0 0.0 12.0 0.0 0.0 0.0 12.0" Properties=species:S:1:pos:R:3 pbc="T T T"
O        7.26684160       8.90019036       5.17055206
H        2.23190959      10.47754978       3.82239687
H        6.82928228       8.26031343       5.73209565
3
Lattice="12.0 0.0 0.0 0.0 12.0 0.0 0.0 0.0 12.0" Properties=species:S:1:pos:R:3 pbc="T T T"
O        7.22271199       8.89969444       5.18205902
H        2.37697664      10.39097190       3.80906993
H        6.80616911       8.24613405       5.74382649
3
Lattice="12.0 0.0 0.0 0.0 12.0 0.0 0.0 0.0 12.0" Properties=species:S:1:pos:R:3 pbc="T T T"
O        7.17806153       8.89786639       5.19542527
H        2.52281639      10.30709463       3.79408815
H        6.78280409       8.23104452       5.75698736
3
Lattice="12.0 0.0 0.0 0.0 12.0 0.0 0.0 0.0 12.0" Properties=species:S:1:pos:R:3 pbc="T T T"
O        7.13293902       8.89470747       5.21064157
H        2.66934598      10.22597593       3.77746188
H        6.75922127       8.21505528       5.77156917
3
Lattice="12.0 0.0 0.0 0.0 12.0 0.0 0.0 0.0 12.0" Properties=species:S:1:pos:R:3 pbc="T T T"
O        7.08739357       8.89021987       5.22769741
H        2.81648207      10.14767187       3.75920260
H        6.73545490       8.19817737       5.78756184
3
Lattice="12.0 0.0 0.0 0.0 12.0 0.0 0.0 0.0 12.0" Properties=species:S:1:pos:R:3 pbc="T T T"
O        7.04147458       8.88440669       5.24658099
H        2.96414091      10.07223657       3.73932294
H        6.71153932       8.18042246       5.80495431
3
Lattice="12.0 0.0 0.0 0.0 12.0 0.0 0.0 0.0 12.0" Properties=species:S:1:pos:R:3 pbc="T T T"
O        6.99523172       8.87727195       5.26727928
H        3.11223837       9.99972214       3.71783663
H        6.68750899       8.16180282       5.82373458
3
Lattice="12.0 0.0 0.0 0.0 12.0 0.0 0.0 0.0 12.0" Properties=species:S:1:pos:R:3 pbc="T T T"
O        6.94871486       8.86882057       5.28977796
H        3.26069003       9.93017872       3.69475852
H        6.66339845       8.14233132       5.84388965
3
Lattice="12.0 0.0 0.0 0.0 12.0 0.0 0.0 0.0 12.0" Properties=species:S:1:pos:R:3 pbc="T T T"
O        6.90197410       8.85905839       5.31406149
H        3.40941123       9.86365436       3.67010457
H        6.63924228       8.12202142       5.86540560
3
Lattice="12.0 0.0 0.0 0.0 12.0 0.0 0.0 0.0 12.0" Properties=species:S:1:pos:R:3 pbc="T T T"
O        6.85505965       8.84799217       5.34011308
H        3.55831712       9.80019503       3.64389181
H        6.61507512       8.10088714       5.88826756
3
Lattice="12.0 0.0 0.0 0.0 12.0 0.0 0.0 0.0 12.0" Properties=species:S:1:pos:R:3 pbc="T T T"
O        6.80802186       8.83562956       5.36791473
H        3.70732271       9.73984460       3.61613835
H        6.59093158       8.07894310       5.91245973
3
Lattice="12.0 0.0 0.0 0.0 12.0 0.0 0.0 0.0 12.0" Properties=species:S:1:pos:R:3 pbc="T T T"
O        6.76091118       8.82197908       5.39744722
H        3.85634295       9.68264476       3.58686338
H        6.56684628       8.05620447       5.93796539
3
Lattice="12.0 0.0 0.0 0.0 12.0 0.0 0.0 0.0 12.0" Properties=species:S:1:pos:R:3 pbc="T T T"
O        6.71377809       8.80705019       5.42869015
H        4.00529279       9.62863506       3.55608713
H        6.54285380       8.03268695       5.96476691
3
Lattice="12.0 0.0 0.0 0.0 12.0 0.0 0.0 0.0 12.0" Properties=species:S:1:pos:R:3 pbc="T T T"
O        6.66667309       8.79085319       5.46162193
H        4.15408722       9.57785281       3.52383086
H        6.51898864       8.00840680       5.99284578
3
Lattice="12.0 0.0 0.0 0.0 12.0 0.0 0.0 0.0 12.0" Properties=species:S:1:pos:R:3 pbc="T T T"
O        6.61964667       8.77339929       5.49621979
H        4.30264132       9.53033312       3.49011688
H        6.49528523       7.98338080       6.02218258
3
Lattice="12.0 0.0 0.0 0.0 12.0 0.0 0.0 0.0 12.0" Properties=species:S:1:pos:R:3 pbc="T T T"
O        6.57274924       8.75470053       5.53245982
H        4.45087037       9.48610881       3.45496847
H        6.47177788       7.95762624       6.05275705
3
Lattice="12.0 0.0 0.0 0.0 12.0 0.0 0.0 0.0 12.0" Properties=species:S:1:pos:R:3 pbc="T T T"
O        6.52603116       8.73476985       5.57031699
H        4.59868985       9.44521047       3.41840994
H        6.44850075       7.93116093       6.08454804
3
Lattice="12.0 0.0 0.0 0.0 12.0 0.0 0.0 0.0 12.0" Properties=species:S:1:pos:R:3 pbc="T T T"
O        6.47954262       8.71362102       5.60976512
H        4.74601554       9.40766634       3.38046654
H        6.42548787       7.90400315       6.11753360
3
Lattice="12.0 0.0 0.0 0.0 12.0 0.0 0.0 0.0 12.0" Properties=species:S:1:pos:R:3 pbc="T T T"
O        6.43333370       8.69126866       5.65077695
H        4.89276353       9.37350238       3.34116450
H        6.40277306       7.87617168       6.15169092
3
Lattice="12.0 0.0 0.0 0.0 12.0 0.0 0.0 0.0 12.0" Properties=species:S:1:pos:R:3 pbc="T T T"
O        6.38745425       8.66772820       5.69332415
H        5.03885035       9.34274220       3.30053098
H        6.38038995       7.84768574       6.18699640
3
Lattice="12.0 0.0 0.0 0.0 12.0 0.0 0.0 0.0 12.0" Properties=species:S:1:pos:R:3 pbc="T T T"
O        6.34195392       8.64301593       5.73737730
H        5.18419297       9.31540706       3.25859406
H        6.35837195       7.81856503       6.22342565
3
Lattice="12.0 0.0 0.0 0.0 12.0 0.0 0.0 0.0 12.0" Properties=species:S:1:pos:R:3 pbc="T T T"
O        6.29688206       8.61714892       5.78290597
H        5.32870885       9.29151584       3.21538272
H        6.33675218       7.78882966       6.26095347
3
Lattice="12.0 0.0 0.0 0.0 12.0 0.0 0.0 0.0 12.0" Properties=species:S:1:pos:R:3 pbc="T T T"
O        6.25228776       8.59014505       5.82987868
H        5.47231607       9.27108506       3.17092684
H        6.31556353       7.75850019       6.29955394
3
Lattice="12.0 0.0 0.0 0.0 12.0 0.0 0.0 0.0 12.0" Properties=species:S:1:pos:R:3 pbc="T T T"
O        6.20821977       8.56202297       5.87826297
H        5.61493330       9.25412884       3.12525712
H        6.29483857       7.72759758       6.33920038
3
Lattice="12.0 0.0 0.0 0.0 12.0 0.0 0.0 0.0 12.0" Properties=species:S:1:pos:R:3 pbc="T T T"
O        6.16472646       8.53280213       5.92802541
H        5.75647990       9.24065890       3.07840514
H        6.27460954       7.69614319       6.37986540
3
Lattice="12.0 0.0 0.0 0.0 12.0 0.0 0.0 0.0 12.0" Properties=species:S:1:pos:R:3 pbc="T T T"
O        6.12185583       8.50250271       5.97913160
H        5.89687598       9.23068454       3.03040327
H        6.25490835       7.66415875       6.42152088
3
Lattice="12.0 0.0 0.0 0.0 12.0 0.0 0.0 0.0 12.0" Properties=species:S:1:pos:R:3 pbc="T T T"
O        6.07965543       8.47114567       6.03154623
H        6.03604245       9.22421267       2.98128468
H        6.23576655       7.63166637       6.46413804
3
Lattice="12.0 0.0 0.0 0.0 12.0 0.0 0.0 0.0 12.0" Properties=species:S:1:pos:R:3 pbc="T T T"
O        6.03817236       8.43875266       6.08523308
H        6.17390104       9.22124774       2.93108333
H        6.21721530       7.59868851       6.50768743
3
Lattice="12.0 0.0 0.0 0.0 12.0 0.0 0.0 0.0 12.0" Properties=species:S:1:pos:R:3 pbc="T T T"
O        5.99745321       8.40534608       6.14015503
H        6.31037443       9.22179181       2.87983390
H        6.19928534       7.56524794       6.55213895
3
Lattice="12.0 0.0 0.0 0.0 12.0 0.0 0.0 0.0 12.0" Properties=species:S:1:pos:R:3 pbc="T T T"
O        5.95754404       8.37094901       6.19627414
H        6.44538621       9.22584451       2.82757182
H        6.18200699       7.53136780       6.59746189
3
Lattice="12.0 0.0 0.0 0.0 12.0 0.0 0.0 0.0 12.0" Properties=species:S:1:pos:R:3 pbc="T T T"
O        5.91849037       8.33558523       6.25355161
H        6.57886101       9.23340304       2.77433320
H        6.16541012       7.49707148       6.64362490
3
Lattice="12.0 0.0 0.0 0.0 12.0 0.0 0.0 0.0 12.0" Properties=species:S:1:pos:R:3 pbc="T T T"
O        5.88033713       8.29927917       6.31194787
H        6.71072452       9.24446216       2.72015483
H        6.14952413       7.46238269       6.69059611
3
Lattice="12.0 0.0 0.0 0.0 12.0 0.0 0.0 0.0 12.0" Properties=species:S:1:pos:R:3 pbc="T T T"
O        5.84312859       8.26205592       6.37142256
H        6.84090353       9.25901424       2.66507416
H        6.13437793       7.42732541       6.73834304
3
Lattice="12.0 0.0 0.0 0.0 12.0 0.0 0.0 0.0 12.0" Properties=species:S:1:pos:R:3 pbc="T T T"
O        5.80690840       8.22394122       6.43193457
H        6.96932600       9.27704922       2.60912926
H        6.11999991       7.39192387       6.78683269
3
Lattice="12.0 0.0 0.0 0.0 12.0 0.0 0.0 0.0 12.0" Properties=species:S:1:pos:R:3 pbc="T T T"
O        5.77171954       8.18496140       6.49344209
H        7.09592111       9.29855464       2.55235878
H        6.10641793       7.35620252       6.83603156
3
Lattice="12.0 0.0 0.0 0.0 12.0 0.0 0.0 0.0 12.0" Properties=species:S:1:pos:R:3 pbc="T T T"
O        5.73760423       8.14514339       6.55590260
H        7.22061930       9.32351563       2.49480197
H        6.09365932       7.32018606       6.88590564
3
Lattice="12.0 0.0 0.0 0.0 12.0 0.0 0.0 0.0 12.0" Properties=species:S:1:pos:R:3 pbc="T T T"
O        5.70460399       8.10451473       6.61927295
H        7.34335232       9.35191494       2.43649859
H        6.08175081       7.28389937       6.93642046
3
Lattice="12.0 0.0 0.0 0.0 12.0 0.0 0.0 0.0 12.0" Properties=species:S:1:pos:R:3 pbc="T T T"
O        5.67275955       8.06310348       6.68350933
H        7.46405327       9.38373295       2.37748894
H        6.07071856       7.24736754       6.98754112
3
Lattice="12.0 0.0 0.0 0.0 12.0 0.0 0.0 0.0 12.0" Properties=species:S:1:pos:R:3 pbc="T T T"
O        5.64211084       8.02093827       6.74856735
H        7.58265667       9.41894767       2.31781381
H        6.06058814       7.21061581       7.03923229
3
Lattice="12.0 0.0 0.0 0.0 12.0 0.0 0.0 0.0 12.0" Properties=species:S:1:pos:R:3 pbc="T T T"
O        5.61269698       7.97804823       6.81440206
H        7.69909848       9.45753476       2.25751443
H        6.05138446       7.17366958       7.09145824
3
Lattice="12.0 0.0 0.0 0.0 12.0 0.0 0.0 0.0 12.0" Properties=species:S:1:pos:R:3 pbc="T T T"
O        5.58455623       7.93446301       6.88096794
H        7.81331615       9.49946756       2.19663248
H        6.04313181       7.13655438       7.14418287
3
Lattice="12.0 0.0 0.0 0.0 12.0 0.0 0.0 0.0 12.0" Properties=species:S:1:pos:R:3 pbc="T T T"
O        5.55772595       7.89021273       6.94821901
H        7.92524868       9.54471707       2.13521004
H        6.03585383       7.09929587       7.19736976
3
Lattice="12.0 0.0 0.0 0.0 12.0 0.0 0.0 0.0 12.0" Properties=species:S:1:pos:R:3 pbc="T T T"
O        5.53224262       7.84532797       7.01610878
H        8.03483663       9.59325204       2.07328954
H        6.02957347       7.06191979       7.25098214
3
Lattice="12.0 0.0 0.0 0.0 12.0 0.0 0.0 0.0 12.0" Properties=species:S:1:pos:R:3 pbc="T T T"
O        5.50814177       7.79983975       7.08459034
H        8.14202221       9.64503892       2.01091379
H        6.02431300       7.02445198       7.30498296
3
Lattice="12.0 0.0 0.0 0.0 12.0 0.0 0.0 0.0 12.0" Properties=species:S:1:pos:R:3 pbc="T T T"
O        5.48545800       7.75377950       7.15361635
H        8.24674926       9.70004192       1.94812589
H        6.02009399       6.98691832       7.35933491
3
Lattice="12.0 0.0 0.0 0.0 12.0 0.0 0.0 0.0 12.0" Properties=species:S:1:pos:R:3 pbc="T T T"
O        5.46422491       7.70717906       7.22313911
H        8.34896333       9.75822303       1.88496923
H        6.01693728       6.94934476       7.41400041
3
Lattice="12.0 0.0 0.0 0.0 12.0 0.0 0.0 0.0 12.0" Properties=species:S:1:pos:R:3 pbc="T T T"
O        5.44447509       7.66007064       7.29311058
H        8.44861172       9.81954204       1.82148747
H        6.01486298       6.91175726       7.46894170
3
Lattice="12.0 0.0 0.0 0.0 12.0 0.0 0.0 0.0 12.0" Properties=species:S:1:pos:R:3 pbc="T T T"
O        5.42624013       7.61248679       7.36348240
H        8.54564348       9.88395656       1.75772447
H        6.01389045       6.87418181       7.52412080
3
Lattice="12.0 0.0 0.0 0.0 12.0 0.0 0.0 0.0 12.0" Properties=species:S:1:pos:R:3 pbc="T T T"
O        5.40955055       7.56446039       7.43420594
H        8.64000949       9.95142210       1.69372430
H        6.01403829       6.83664436       7.57949957
3
Lattice="12.0 0.0 0.0 0.0 12.0 0.0 0.0 0.0 12.0" Properties=species:S:1:pos:R:3 pbc="T T T"
O        5.39443582       7.51602464       7.50523231
H        8.73166245      10.02189201       1.62953119
H        6.01532433       6.79917086       7.63503975
3
Lattice="12.0 0.0 0.0 0.0 12.0 0.0 0.0 0.0 12.0" Properties=species:S:1:pos:R:3 pbc="T T T"
O        5.38092431       7.46721301       7.57651244
H        8.82055695      10.09531760       1.56518951
H        6.01776560       6.76178721       7.69070295
3
Lattice="12.0 0.0 0.0 0.0 12.0 0.0 0.0 0.0 12.0" Properties=species:S:1:pos:R:3 pbc="T T T"
O        5.36904329       7.41805923       7.64799705
H        8.90664949      10.17164812       1.50074372
H        6.02137835       6.72451925       7.74645070
3
Lattice="12.0 0.0 0.0 0.0 12.0 0.0 0.0 0.0 12.0" Properties=species:S:1:pos:R:3 pbc="T T T"
O        5.35881890       7.36859727       7.71963676
H        8.98989849      10.25083082       1.43623835
H        6.02617800       6.68739273       7.80224448
3
Lattice="12.0 0.0 0.0 0.0 12.0 0.0 0.0 0.0 12.0" Properties=species:S:1:pos:R:3 pbc="T T T"
O        5.35027613       7.31886133       7.79138204
H        9.07026436      10.33281099       1.37171800
H        6.03217918       6.65043330       7.85804572
3
Lattice="12.0 0.0 0.0 0.0 12.0 0.0 0.0 0.0 12.0" Properties=species:S:1:pos:R:3 pbc="T T T"
O        5.34343880       7.26888576       7.86318332
H        9.14770947      10.41753195       1.30722724
H        6.03939565       6.61366652       7.91381587
3
Lattice="12.0 0.0 0.0 0.0 12.0 0.0 0.0 0.0 12.0" Properties=species:S:1:pos:R:3 pbc="T T T"
O        5.33832959       7.21870511       7.93499097
H        9.22219824      10.50493517       1.24281065
H        6.04784037       6.57711779       7.96951637
3
Lattice="12.0 0.0 0.0 0.0 12.0 0.0 0.0 0.0 12.0" Properties=species:S:1:pos:R:3 pbc="T T T"
O        5.33496994       7.16835405       8.00675537
H        9.29369711      10.59496024       1.17851275
H        6.05752542       6.54081236       8.02510875
3
Lattice="12.0 0.0 0.0 0.0 12.0 0.0 0.0 0.0 12.0" Properties=species:S:1:pos:R:3 pbc="T T T"
O        5.33338010       7.11786739       8.07842692
H        9.36217460      10.68754494       1.11437796
H        6.06846203       6.50477534       8.08055456
3
Lattice="12.0 0.0 0.0 0.0 12.0 0.0 0.0 0.0 12.0" Properties=species:S:1:pos:R:3 pbc="T T T"
O        5.33357911       7.06728002       8.14995609
H        9.42760131      10.78262529       1.05045063
H        6.08066058       6.46903161       8.13581551
3
Lattice="12.0 0.0 0.0 0.0 12.0 0.0 0.0 0.0 12.0" Properties=species:S:1:pos:R:3 pbc="T T T"
O        5.33558474       7.01662689       8.22129345
H        9.48994996      10.88013557       0.98677492
H        6.09413057       6.43360590       8.19085339
3
Lattice="12.0 0.0 0.0 0.0 12.0 0.0 0.0 0.0 12.0" Properties=species:S:1:pos:R:3 pbc="T T T"
O        5.33941355       6.96594301       8.29238969
H        9.54919538      10.98000841       0.92339484
H        6.10888061       6.39852268       8.24563017
3
Lattice="12.0 0.0 0.0 0.0 12.0 0.0 0.0 0.0 12.0" Properties=species:S:1:pos:R:3 pbc="T T T"
O        5.34508082       6.91526341       8.36319568
H        9.60531455      11.08217477       0.86035419
H        6.12491844       6.36380619       8.30010799
3
Lattice="12.0 0.0 0.0 0.0 12.0 0.0 0.0 0.0 12.0" Properties=species:S:1:pos:R:3 pbc="T T T"
O        5.35260055       6.86462312       8.43366248
H        9.65828663      11.18656405       0.79769654
H        6.14225090       6.32948042       8.35424921
3
Lattice="12.0 0.0 0.0 0.0 12.0 0.0 0.0 0.0 12.0" Properties=species:S:1:pos:R:3 pbc="T T T"
O        5.36198548       6.81405713       8.50374141
H        9.70809293      11.29310410       0.73546520
H        6.16088394       6.29556911       8.40801641
3
Lattice="12.0 0.0 0.0 0.0 12.0 0.0 0.0 0.0 12.0" Properties=species:S:1:pos:R:3 pbc="T T T"
O        5.37324705       6.76360038       8.57338402
H        9.75471695      11.40172131       0.67370316
H        6.18082261       6.26209569       8.46137243
3
Lattice="12.0 0.0 0.0 0.0 12.0 0.0 0.0 0.0 12.0" Properties=species:S:1:pos:R:3 pbc="T T T"
O        5.38639541       6.71328776       8.64254219
H        9.79814440      11.51234059       0.61245313
H        6.20207107       6.22908328       8.51428039
3
Lattice="12.0 0.0 0.0 0.0 12.0 0.0 0.0 0.0 12.0" Properties=species:S:1:pos:R:3 pbc="T T T"
O        5.40143939       6.66315402       8.71116811
H        9.83836321      11.62488551       0.55175741
H        6.22463254       6.19655471       8.56670373
3
Lattice="12.0 0.0 0.0 0.0 12.0 0.0 0.0 0.0 12.0" Properties=species:S:1:pos:R:3 pbc="T T T"
O        5.41838653       6.61323382       8.77921438
H        9.87536350      11.73927829       0.49165797
H        6.24850938       6.16453246       8.61860623
3
Lattice="12.0 0.0 0.0 0.0 12.0 0.0 0.0 0.0 12.0" Properties=species:S:1:pos:R:3 pbc="T T T"
O        5.43724305       6.56356166       8.84663394
H        9.90913762      11.85543986       0.43219633
H        6.27370301       6.13303865       8.66995200
3
Lattice="12.0 0.0 0.0 0.0 12.0 0.0 0.0 0.0 12.0" Properties=species:S:1:pos:R:3 pbc="T T T"
O        5.45801383       6.51417186       8.91338023
H        9.93968018      11.97328995       0.37341358
H        6.30021394       6.10209505       8.72070557
3
Lattice="12.0 0.0 0.0 0.0 12.0 0.0 0.0 0.0 12.0" Properties=species:S:1:pos:R:3 pbc="T T T"
O        5.48070246       6.46509855       8.97940710
H        9.96698797       0.09274711       0.31535037
H        6.32804178       6.07172304       8.77083187
3
Lattice="12.0 0.0 0.0 0.0 12.0 0.0 0.0 0.0 12.0" Properties=species:S:1:pos:R:3 pbc="T T T"
O        5.50531118       6.41637566       9.04466892
H        9.99106007       0.21372879       0.25804680
H        6.35718523       6.04194362       8.82029624
3
Lattice="12.0 0.0 0.0 0.0 12.0 0.0 0.0 0.0 12.0" Properties=species:S:1:pos:R:3 pbc="T T T"
O        5.53184092       6.36803686       9.10912060
H       10.01189777       0.33615138       0.20154248
H        6.38764207       6.01277737       8.86906450
3
Lattice="12.0 0.0 0.0 0.0 12.0 0.0 0.0 0.0 12.0" Properties=species:S:1:pos:R:3 pbc="T T T"
O        5.56029126       6.32011554       9.17271758
H       10.02950458       0.45993027       0.14587647
H        6.41940918       5.98424444       8.91710296
3
Lattice="12.0 0.0 0.0 0.0 12.0 0.0 0.0 0.0 12.0" Properties=species:S:1:pos:R:3 pbc="T T T"
O        5.59066047       6.27264483       9.23541593
H       10.04388628       0.58497991       0.09108724
H        6.45248254       5.95636455       8.96437840
3
Lattice="12.0 0.0 0.0 0.0 12.0 0.0 0.0 0.0 12.0" Properties=species:S:1:pos:R:3 pbc="T T T"
O        5.62294549       6.22565754       9.29717230
H       10.05505085       0.71121389       0.03721264
H        6.48685722       5.92915697       9.01085817
3
Lattice="12.0 0.0 0.0 0.0 12.0 0.0 0.0 0.0 12.0" Properties=species:S:1:pos:R:3 pbc="T T T"
O        5.65714194       6.17918614       9.35794402
H       10.06300849       0.83854497      11.98428991
H        6.52252739       5.90264050       9.05651014
3
Lattice="12.0 0.0 0.0 0.0 12.0 0.0 0.0 0.0 12.0" Properties=species:S:1:pos:R:3 pbc="T T T"
O        5.69324412       6.13326274       9.41768909
H       10.06777165       0.96688514      11.93235562
H        6.55948632       5.87683348       9.10130275
3
Lattice="12.0 0.0 0.0 0.0 12.0 0.0 0.0 0.0 12.0" Properties=species:S:1:pos:R:3 pbc="T T T"
O        5.73124500       6.08791909       9.47636622
H       10.06935496       1.09614572      11.88144568
H        6.59772641       5.85175372       9.14520505
3
Lattice="12.0 0.0 0.0 0.0 12.0 0.0 0.0 0.0 12.0" Properties=species:S:1:pos:R:3 pbc="T T T"
O        5.77113624       6.04318651       9.53393486
H       10.06777524       1.22623737      11.83159525
H        6.63723915       5.82741857       9.18818670
3
Lattice="12.0 0.0 0.0 0.0 12.0 0.0 0.0 0.0 12.0" Properties=species:S:1:pos:R:3 pbc="T T T"
O        5.81290821       5.99909593       9.59035522
H       10.06305153       1.35707018      11.78283880
H        6.67801516       5.80384485       9.23021800
3
Lattice="12.0 0.0 0.0 0.0 12.0 0.0 0.0 0.0 12.0" Properties=species:S:1:pos:R:3 pbc="T T T"
O        5.85654996       5.95567781       9.64558831
H       10.05520501       1.48855374      11.73521002
H        6.72004419       5.78104884       9.27126990
3
Lattice="12.0 0.0 0.0 0.0 12.0 0.0 0.0 0.0 12.0" Properties=species:S:1:pos:R:3 pbc="T T T"
O        5.90204927       5.91296217       9.69959596
H       10.04425903       1.62059718      11.68874181
H        6.76331513       5.75904629       9.31131403
3
Lattice="12.0 0.0 0.0 0.0 12.0 0.0 0.0 0.0 12.0" Properties=species:S:1:pos:R:3 pbc="T T T"
O        5.94939261       5.87097851       9.75234084
H       10.03023909       1.75310924      11.64346631
H        6.80781600       5.73785243       9.35032270
3
Lattice="12.0 0.0 0.0 0.0 12.0 0.0 0.0 0.0 12.0" Properties=species:S:1:pos:R:3 pbc="T T T"
O        5.99856520       5.82975586       9.80378651
H       10.01317280       1.88599835      11.59941480
H        6.85353396       5.71748189       9.38826898
3
Lattice="12.0 0.0 0.0 0.0 12.0 0.0 0.0 0.0 12.0" Properties=species:S:1:pos:R:3 pbc="T T T"
O        6.04955098       5.78932271       9.85389740
H        9.99308989       2.01917266      11.55661771
H        6.90045536       5.69794874       9.42512662
3
Lattice="12.0 0.0 0.0 0.0 12.0 0.0 0.0 0.0 12.0" Properties=species:S:1:pos:R:3 pbc="T T T"
O        6.10233265       5.74970699       9.90263890
H        9.97002216       2.15254014      11.51510463
H        6.94856569       5.67926650       9.46087016
3
Lattice="12.0 0.0 0.0 0.0 12.0 0.0 0.0 0.0 12.0" Properties=species:S:1:pos:R:3 pbc="T T T"
O        6.15689165       5.71093610       9.94997730
H        9.94400349       2.28600863      11.47490426
H        6.99784963       5.66144807       9.49547490
3
Lattice="12.0 0.0 0.0 0.0 12.0 0.0 0.0 0.0 12.0" Properties=species:S:1:pos:R:3 pbc="T T T"
O        6.21320820       5.67303681       9.99587990
H        9.91506978       2.41948587      11.43604436
H        7.04829106       5.64450576       9.52891691
3
Lattice="12.0 0.0 0.0 0.0 12.0 0.0 0.0 0.0 12.0" Properties=species:S:1:pos:R:3 pbc="T T T"
O        6.27126132       5.63603533      10.04031498
H        9.88325895       2.55287963      11.39855180
H        7.09987304       5.62845129       9.56117310
3
Lattice="12.0 0.0 0.0 0.0 12.0 0.0 0.0 0.0 12.0" Properties=species:S:1:pos:R:3 pbc="T T T"
O        6.33102881       5.59995722      10.08325182
H        9.84861093       2.68609771      11.36245248
H        7.15257784       5.61329575       9.59222116
3
Lattice="12.0 0.0 0.0 0.0 12.0 0.0 0.0 0.0 12.0" Properties=species:S:1:pos:R:3 pbc="T T T"
O        6.39248729       5.56482742      10.12466075
H        9.81116758       2.81904806      11.32777137
H        7.20638698       5.59904961       9.62203964
3
Lattice="12.0 0.0 0.0 0.0 12.0 0.0 0.0 0.0 12.0" Properties=species:S:1:pos:R:3 pbc="T T T"
O        6.45561222       5.53067020      10.16451316
H        9.77097270       2.95163878      11.29453241
H        7.26128119       5.58572272       9.65060793
3
Lattice="12.0 0.0 0.0 0.0 12.0 0.0 0.0 0.0 12.0" Properties=species:S:1:pos:R:3 pbc="T T T"
O        6.52037790       5.49750918      10.20278149
H        9.72807201       3.08377825      11.26275859
H        7.31724046       5.57332429       9.67790629
3
Lattice="12.0 0.0 0.0 0.0 12.0 0.0 0.0 0.0 12.0" Properties=species:S:1:pos:R:3 pbc="T T T"
O        6.58675751       5.46536727      10.23943931
H        9.68251308       3.21537515      11.23247186
H        7.37424406       5.56186288       9.70391586
3
Lattice="12.0 0.0 0.0 0.0 12.0 0.0 0.0 0.0 12.0" Properties=species:S:1:pos:R:3 pbc="T T T"
O        6.65472308       5.43426668      10.27446129
H        9.63434533       3.34633852      11.20369316
H        7.43227050       5.55134643       9.72861865
3
Lattice="12.0 0.0 0.0 0.0 12.0 0.0 0.0 0.0 12.0" Properties=species:S:1:pos:R:3 pbc="T T T"
O        6.72424559       5.40422890      10.30782321
H        9.58361996       3.47657786      11.17644237
H        7.49129763       5.54178219       9.75199759
3
Lattice="12.0 0.0 0.0 0.0 12.0 0.0 0.0 0.0 12.0" Properties=species:S:1:pos:R:3 pbc="T T T"
O        6.79529491       5.37527471      10.33950201
H        9.53038997       3.60600316      11.15073833
H        7.55130256       5.53317677       9.77403654
3
Lattice="12.0 0.0 0.0 0.0 12.0 0.0 0.0 0.0 12.0" Properties=species:S:1:pos:R:3 pbc="T T T"
O        6.86783987       5.34742409      10.36947582
H        9.47471007       3.73452498      11.12659880
H        7.61226177       5.52553613       9.79472025
3
Lattice="12.0 0.0 0.0 0.0 12.0 0.0 0.0 0.0 12.0" Properties=species:S:1:pos:R:3 pbc="T T T"
O        6.94184826       5.32069631      10.39772391
H        9.41663667       3.86205450      11.10404046
H        7.67415105       5.51886554       9.81403443
3
Lattice="12.0 0.0 0.0 0.0 12.0 0.0 0.0 0.0 12.0" Properties=species:S:1:pos:R:3 pbc="T T T"
O        7.01728685       5.29510984      10.42422676
H        9.35622783       3.98850357      11.08307890
H        7.73694556       5.51316962       9.83196574
3
Lattice="12.0 0.0 0.0 0.0 12.0 0.0 0.0 0.0 12.0" Properties=species:S:1:pos:R:3 pbc="T T T"
O        7.09412146       5.27068235      10.44896606
H        9.29354323       4.11378482      11.06372862
H        7.80061983       5.50845230       9.84850178
3
Lattice="12.0 0.0 0.0 0.0 12.0 0.0 0.0 0.0 12.0" Properties=species:S:1:pos:R:3 pbc="T T T"
O        7.17231689       5.24743074      10.47192470
H        9.22864412       4.23781165      11.04600297
H        7.86514778       5.50471684       9.86363113
3
Lattice="12.0 0.0 0.0 0.0 12.0 0.0 0.0 0.0 12.0" Properties=species:S:1:pos:R:3 pbc="T T T"
O        7.25183705       5.22537106      10.49308682
H        9.16159327       4.36049836      11.02991422
H        7.93050274       5.50196581       9.87734332
3
Lattice="12.0 0.0 0.0 0.0 12.0 0.0 0.0 0.0 12.0" Properties=species:S:1:pos:R:3 pbc="T T T"
O        7.33264489       5.20451856      10.51243780
H        9.09245495       4.48176016      11.01547348
H        7.99665748       5.50020114       9.88962889
3
Lattice="12.0 0.0 0.0 0.0 12.0 0.0 0.0 0.0 12.0" Properties=species:S:1:pos:R:3 pbc="T T T"
O        7.41470251       5.18488766      10.52996426
H        9.02129488       4.60151324      11.00269074
H        8.06358420       5.49942402       9.90047934
3
Lattice="12.0 0.0 0.0 0.0 12.0 0.0 0.0 0.0 12.0" Properties=species:S:1:pos:R:3 pbc="T T T"
O        7.49797112       5.16649192      10.54565409
H        8.94818015       4.71967485      10.99157481
H        8.13125459       5.49963500       9.90988717
3
Lattice="12.0 0.0 0.0 0.0 12.0 0.0 0.0 0.0 12.0" Properties=species:S:1:pos:R:3 pbc="T T T"
O        7.58241110       5.14934405      10.55949644
H        8.87317923       4.83616331      10.98213340
H        8.19963979       5.50083394       9.91784588
3
Lattice="12.0 0.0 0.0 0.0 12.0 0.0 0.0 0.0 12.0" Properties=species:S:1:pos:R:3 pbc="T T T"
O        7.66798203       5.13345591      10.57148176
H        8.79636188       4.95089813      10.97437302
H        8.26871049       5.50302001       9.92434997
3
Lattice="12.0 0.0 0.0 0.0 12.0 0.0 0.0 0.0 12.0" Properties=species:S:1:pos:R:3 pbc="T T T"
O        7.75464269       5.11883848      10.58160175
H        8.71779911       5.06380002      10.96829903
H        8.33843686       5.50619168       9.92939495
3
Lattice="12.0 0.0 0.0 0.0 12.0 0.0 0.0 0.0 12.0" Properties=species:S:1:pos:R:3 pbc="T T T"
O        7.84235113       5.10550185      10.58984943
H        8.63756314       5.17479094      10.96391564
H        8.40878866       5.51034678       9.93297733
3
Lattice="12.0 0.0 0.0 0.0 12.0 0.0 0.0 0.0 12.0" Properties=species:S:1:pos:R:3 pbc="T T T"
O        7.93106465       5.09345525      10.59621909
H        8.55572736       5.28379419      10.96122587
H        8.47973518       5.51548244       9.93509463
3
Lattice="12.0 0.0 0.0 0.0 12.0 0.0 0.0 0.0 12.0" Properties=species:S:1:pos:R:3 pbc="T T T"
O        8.02073987       5.08270700      10.60070633
H        8.47236625       5.39073445      10.96023158
H        8.55124534       5.52159509       9.93574540
3
Lattice="12.0 0.0 0.0 0.0 12.0 0.0 0.0 0.0 12.0" Properties=species:S:1:pos:R:3 pbc="T T T"
O        8.11133275       5.07326453      10.60330805
H        8.38755535       5.49553780      10.96093346
H        8.62328763       5.52868052       9.93492917
3
Lattice="12.0 0.0 0.0 0.0 12.0 0.0 0.0 0.0 12.0" Properties=species:S:1:pos:R:3 pbc="T T T"
O        8.20279861       5.06513436      10.60402245
H        8.30137120       5.59813181      10.96333103
H        8.69583019       5.53673383       9.93264652
