179
Properties=species:S:1:pos:R:3 pbc="F F F"
O        0.00000000       0.00000000       0.00000000
H        5.57809709      -5.52549294      -2.58095969
H       -5.46533495      -6.12098301      -2.70639231
O       -6.13317608       6.13195760       0.11779512
H       -5.98895344       5.18907524       0.19782336
H       -5.25650007      -5.91609163       0.16323457
H       -5.60408543      -5.48655967       2.68116352
H       -6.14086144      -2.45443604      -5.36767079
O       -6.13945907      -2.99049398      -3.00172409
H        5.91398229      -2.66237004      -2.18499507
H        6.14248525      -3.93574085      -2.97125735
O       -6.19619702      -3.15082444       0.04042570
H        5.51250224      -2.58927266       0.32528674
H        5.87100586      -4.03647754       0.06266845
O       -6.19727422      -3.11106545       3.02848978
H        5.55206890      -3.14817946       2.35613577
H        5.86031628      -3.58430827       3.77270572
O        6.02774536      -0.02643279      -6.01390083
H       -6.15955404      -0.74485742      -5.42963013
H       -5.82591468       0.69450966      -5.75948219
O       -6.12475108      -0.03187612      -2.91843987
H       -5.41282443      -0.36851883      -2.37432227
H        5.83972676       0.58324249      -2.35143767
O        6.17203374       0.06193028       0.06309252
H        5.34506622      -0.10252783       0.51620409
H        5.91348421       0.32640234      -0.81976563
O       -6.17275204      -0.11275461       3.18651885
H        6.03162956       0.38229330       3.97418704
H       -5.64014403      -0.84146226       3.50518122
H       -5.36420321       3.64861984       6.10357958
H        5.69712872       3.88574323      -5.72321066
O        6.18258795       3.21417115      -2.93294090
H        6.17873034       2.27574052      -2.74435428
H       -5.73113581       3.29563937      -3.73508322
O        6.11355727       3.15406477       0.18716057
H       -5.38742187       3.22029813      -0.03520571
H        5.97065069       3.84850829       0.83024513
O       -6.16055886       3.01790400       3.19284326
H        5.79575885       3.10863517       2.36581714
H        5.94938687       3.74068626       3.73285958
H       -2.70258082       5.88905860       5.38577773
O       -2.97300981      -6.08174603      -3.05362199
H       -2.87418086      -5.31128389      -3.61295441
H       -2.08216459       6.14008471      -2.77176244
O       -3.04708429      -6.08873268       0.22970140
H       -3.50825618      -5.95268888      -0.59797269
H       -2.36439523       5.70291566       0.02199269
O       -3.02495227      -6.21477673       3.12620897
H       -3.07571693       5.26057463       3.18099133
H       -2.27147561      -5.98297031       3.66913671
O       -3.01108074      -3.23099931      -6.03314118
H       -3.12674796      -3.60399787      -5.15922756
H       -2.78662620      -3.97960578       5.84382535
O       -3.04130304      -3.00311029      -3.04944038
H       -2.54012767      -2.52065371      -3.70692858
H       -2.40071492      -3.22279727      -2.37296692
O       -3.05625538      -3.10186934       0.12126632
H       -3.40611449      -3.96511317      -0.09927968
H       -3.82740614      -2.57975382       0.34252121
O       -3.07286349      -3.10967025       3.11061609
H       -2.52490075      -3.05538403       2.32765908
H       -2.88058357      -2.30634575       3.59427922
O       -3.15910635      -0.01237611      -6.16758104
H       -4.09938634       0.11997448       6.14126835
H       -2.85668887      -0.36377012       5.42461686
O       -2.96941537       0.01281876      -2.94152117
H       -3.77855863      -0.22188775      -2.48717341
H       -2.70603451      -0.78937586      -3.39246036
O       -2.87417414       0.06165737       0.12381599
H       -2.94495152       0.92245620      -0.28879495
H       -2.35535467      -0.45719301      -0.49088107
O       -2.99121361       0.06269935       3.31228485
H       -3.17204004       0.51206618       2.48669228
H       -3.02920015       0.75283052       3.97448410
O       -2.92677507       3.14448251      -6.15884472
H       -1.98609988       3.13957298       6.09376320
H       -2.99586173       2.95533087      -5.22306669
O       -3.24904228       3.07189800      -3.06815133
H       -2.47234283       2.94608188      -3.61325693
H       -3.77734540       2.28799463      -3.21856128
O       -3.14738099       3.09373094       0.10914809
H       -3.27789110       2.49185324       0.84191148
H       -2.19753371       3.19528014       0.04824045
O       -3.15646975       3.16416514       3.23101374
H       -2.58128533       3.55598834       3.88818137
H       -3.55581276       3.91134001       2.78549526
O        0.05137182      -6.11984489      -6.08324197
H       -0.05268078      -5.30689582      -5.58875364
H        0.88296108       5.94762974      -5.77741134
O        0.24924727      -6.06727358      -2.86611438
H        0.03428274      -5.44054968      -3.55693943
H       -0.29116882       5.59651988      -3.06020689
O        0.00422823       6.17817941       0.14793724
H       -0.91915271      -6.00165928       0.11326405
H        0.00599743       5.32546129       0.58279412
O        0.04694640      -6.12188501       3.31342602
H       -0.28737411      -6.07302520       2.41783999
H        0.57415216      -5.32961348       3.41634221
O        0.09086950      -2.92345567      -6.11755556
H       -0.80870472      -2.68086251       6.09265414
H        0.21900601      -3.77438649       5.89287641
O        0.05698196      -3.04421858      -3.02614422
H        0.89639297      -3.23813949      -3.44329610
H       -0.57710409      -3.06236163      -3.74296885
O        0.11063438      -3.19022279       0.06132818
H        0.92900890      -3.35132275       0.53094695
H       -0.42248573      -2.68447089       0.67470393
O        0.00906096      -3.02006753       3.23316357
H       -0.67019284      -2.76934015       3.85924815
H       -0.09210282      -3.96690131       3.13567757
O        0.01993495      -0.07363380      -6.12104285
H        0.27868804      -0.91609348       5.93503925
H       -0.38221709       0.39874178       5.57964110
O        0.05596185       0.12536242      -3.07187508
H        0.15061651      -0.02668530      -2.13158054
H        0.50489380      -0.61444252      -3.48099680
H       -0.23107776       0.69669691       0.61436824
H        0.57957467      -0.57655632       0.49790345
O       -0.01734896       0.10038382       3.39430497
H       -0.39598942       0.51885633       2.62116592
H        0.91267957       0.32370922       3.35682771
O       -0.01488530       3.12829695      -6.07677987
H        0.74505255       3.68460218      -5.90575125
H        0.02884362       2.94409505       5.41456264
O        0.06604664       3.10187405      -3.08479476
H       -0.62455120       3.74218197      -2.91358660
H        0.57885940       3.48630506      -3.79575728
O        0.10243556       3.12471948       0.18640123
H        0.32337778       4.02510619       0.42456113
H       -0.50383924       2.83773724       0.86926571
O        0.09877088       3.18196990       3.07094158
H       -0.39299419       2.44906862       2.70046261
H       -0.25778105       3.95545851       2.63411446
H        2.60865218      -5.60382478      -5.39523553
O        3.11791009       6.12276022      -2.94201215
H        2.48683987      -5.79255702      -2.43856266
H        3.09071152       5.25281167      -2.54366358
O        3.15149858      -6.18903990       0.17814173
H        4.10426041       6.14984083       0.16262608
H        2.82541755       5.40606538      -0.15870584
O        3.17991947      -6.02165555       3.20936442
H        3.20990459      -5.74037881       4.12381295
H        4.09837649      -6.11900345       2.95798439
O        3.08427298      -3.26501192      -5.99621673
H        2.23965767      -2.98469662      -5.64368283
H        3.19356048      -4.15986363      -5.67445829
O        3.07775140      -3.13301749      -3.02348185
H        3.88871292      -3.51844309      -3.35517503
H        3.17078278      -3.16077592      -2.07121798
O        3.19063126      -3.15453902       0.12965308
H        2.86936507      -2.56649302      -0.55388315
H        3.91500041      -2.67803745       0.53519892
O        3.16416199      -3.04552686       3.15037273
H        4.11395346      -3.02966122       3.26817040
H        2.81099258      -2.94603716       4.03445700
O        3.29396869      -0.03622162      -6.11183057
H        3.26068269      -0.75752843      -5.48346733
H        2.65774894      -0.27549608       5.64385595
O        3.04434672       0.04245525      -3.09479786
H        2.47363685       0.75698308      -2.81200456
H        3.38965583       0.33111610      -3.93958681
O        3.19272233      -0.10262540       0.08206285
H        3.02491561      -1.03381072      -0.06273573
H        4.07558446       0.03814965      -0.25994401
O        3.16848211      -0.01328383       3.14749014
H        2.56828287       0.72484034       3.04182352
H        3.03091291      -0.54827106       2.36576435
O        3.05857179       3.03239530      -6.13168861
H        2.87488683       3.64902148       5.58923877
H        3.60808487       3.52457362      -5.52174786
O        3.24899917       3.23695177      -2.82643077
H        3.99887470       2.75864569      -2.47267687
H        3.33985312       3.15737499      -3.77598063
O        3.15106163       3.09979799       0.15214474
H        4.06206453       3.14431085      -0.13824147
H        3.03232857       2.19202354       0.43157246
O        3.06704032       3.14929866       3.18568877
H        3.25655075       2.23157782       3.38089658
H        2.24259698       3.12603103       2.69990731
179
Properties=species:S:1:pos:R:3 pbc="F F F"
O        0.00213632      -0.00212443       0.00067937
H        5.57383513      -5.53209601      -2.59045393
H       -5.46981659      -6.13007954      -2.69411595
O       -6.12961846       6.13212976       0.11704999
H       -6.00026826       5.18380802       0.20752859
H       -5.25521541      -5.90931032       0.16820099
H       -5.59650026      -5.48039523       2.69044387
H       -6.14480910      -2.45335218      -5.37689800
O       -6.13854337      -2.98858472      -3.00351825
H        5.92114967      -2.64539613      -2.17463612
H        6.15656544      -3.94309566      -2.96153877
O       -6.19685954      -3.14947220       0.04371292
H        5.51215616      -2.58334338       0.32927342
H        5.87209784      -4.03810220       0.07011177
O       -6.19807729      -3.11177159       3.02877896
H        5.55493614      -3.14696538       2.35698797
H        5.85772636      -3.58968502       3.78793300
O        6.02815580      -0.02666112      -6.01526934
H       -6.17167422      -0.72689349      -5.43330501
H       -5.83180292       0.68371504      -5.76557601
O       -6.12350725      -0.03360661      -2.91735190
H       -5.41741722      -0.36049347      -2.37554930
H        5.82574010       0.57202601      -2.35576621
O        6.17183426       0.06384143       0.06175915
H        5.34033363      -0.10874201       0.51110747
H        5.91775247       0.33036184      -0.82216812
O       -6.17387751      -0.11253083       3.18838012
H        6.02851049       0.39061838       3.96976707
H       -5.63569651      -0.84337907       3.50554423
H       -5.36380812       3.65096223       6.10654794
H        5.68685223       3.88334735      -5.71782847
O        6.18175979       3.21357140      -2.93010080
H        6.18172942       2.25887746      -2.73572117
H       -5.72882252       3.30013538      -3.74621990
O        6.11143283       3.15644588       0.18585302
H       -5.39981541       3.21551646      -0.02390132
H        5.97018314       3.85870171       0.81547779
O       -6.15988166       3.01929161       3.19424726
H        5.78636567       3.11265734       2.36957997
H        5.93967974       3.73391251       3.73118920
H       -2.70249086       5.90324904       5.39303482
O       -2.97540873      -6.08125951      -3.05214449
H       -2.87508182      -5.30678671      -3.59344021
H       -2.07321835       6.13075782      -2.76167246
O       -3.04729649      -6.08817002       0.22895714
H       -3.51600573      -5.95130958      -0.59403522
H       -2.35577386       5.68494984       0.02406969
O       -3.02707951       6.21470952       3.12334325
H       -3.07767016       5.25008086       3.18079902
H       -2.26701987      -5.98442139       3.67303544
O       -3.01153506      -3.23218673      -6.03299638
H       -3.12724445      -3.60927072      -5.16338433
H       -2.78558420      -3.98423724       5.85563740
O       -3.03917785      -3.00247584      -3.05145354
H       -2.53787224      -2.52306936      -3.71463044
H       -2.38078483      -3.23060269      -2.37056335
O       -3.05434681      -3.10013461       0.12394808
H       -3.40603821      -3.96307972      -0.09516867
H       -3.83776708      -2.57657925       0.34538115
O       -3.07499961      -3.10960060       3.11206460
H       -2.51631782      -3.04767257       2.32202402
H       -2.89008171      -2.30891263       3.59732935
O       -3.16134553      -0.01204516      -6.16995820
H       -4.10150973       0.12421615       6.14724187
H       -2.86489119      -0.35345086       5.42980062
O       -2.97098465       0.01418313      -2.94475520
H       -3.78295279      -0.22392751      -2.48347058
H       -2.70837376      -0.78333351      -3.38896795
O       -2.87233309       0.05789930       0.12827720
H       -2.93350599       0.92636393      -0.28827450
H       -2.35267901      -0.46191348      -0.49605573
O       -2.98795631       0.06140694       3.31190778
H       -3.16712672       0.51340287       2.47516020
H       -3.03142022       0.76185579       3.97537164
O       -2.92762180       3.14572710      -6.16191538
H       -1.97654153       3.14947482       6.09268511
H       -2.98897881       2.95899887      -5.23033559
O       -3.24788817       3.06837092      -3.06562612
H       -2.48417610       2.95009683      -3.62068727
H       -3.77996276       2.27551906      -3.22887610
O       -3.14566257       3.09198947       0.11237071
H       -3.27829970       2.49124365       0.83136195
H       -2.19014369       3.20022021       0.04276800
O       -3.15360790       3.16392788       3.22963035
H       -2.59198477       3.54860733       3.89567354
H       -3.55887263       3.91159562       2.76784078
O        0.04827804      -6.11976707      -6.08430780
H       -0.06153807      -5.31688617      -5.59919005
H        0.87730635       5.94520445      -5.77220799
O        0.24828421      -6.06641653      -2.86753554
H        0.03323731      -5.44352278      -3.54676462
H       -0.29355148       5.60512038      -3.05207317
O        0.00423652       6.17944344       0.14517497
H       -0.93294477      -6.00514817       0.12552652
H       -0.01833851       5.32770038       0.57084529
O        0.04662993      -6.12366138       3.31836357
H       -0.28580941      -6.06462813       2.39889316
H        0.56908780      -5.32781388       3.41060713
O        0.09280689      -2.92553766      -6.11668345
H       -0.80884216      -2.69246661       6.08950277
H        0.21504449      -3.77097576       5.90919792
O        0.05807328      -3.04135797      -3.02413207
H        0.88517962      -3.24066285      -3.44798316
H       -0.58015797      -3.06789932      -3.73837333
O        0.10875802      -3.19030955       0.06322137
H        0.92705150      -3.34735682       0.51795099
H       -0.41882165      -2.69399021       0.69033703
O        0.00980776      -3.02001621       3.23062886
H       -0.66481618      -2.76840081       3.86120486
H       -0.08876592      -3.97470792       3.14166311
O        0.01937045      -0.07553733      -6.12049414
H        0.28092856      -0.91241299       5.94311863
H       -0.38818540       0.39564121       5.57116061
O        0.05771904       0.12308288      -3.07189599
H        0.16218401      -0.03103469      -2.14148319
H        0.51432751      -0.62112046      -3.47706908
H       -0.23947381       0.69569882       0.60505658
H        0.58161330      -0.58013748       0.50488258
O       -0.01535120       0.09954363       3.39391985
H       -0.39231345       0.51560110       2.61862456
H        0.92907164       0.32956576       3.36932286
O       -0.01866456       3.12983425      -6.07817348
H        0.74640068       3.67887087      -5.90679815
H        0.03134077       2.94881176       5.41304507
O        0.06908486       3.09910757      -3.08640381
H       -0.61945765       3.74247351      -2.91104923
H        0.59818582       3.49034460      -3.79183484
O        0.10127574       3.12512582       0.18464742
H        0.31772208       4.03379820       0.41707427
H       -0.50001407       2.85240816       0.88115377
O        0.09847250       3.18190460       3.06963847
H       -0.40108742       2.44689114       2.70518827
H       -0.26963257       3.94866447       2.63201693
H        2.60550260      -5.61776496      -5.38288682
O        3.11756744       6.12237475      -2.94315902
H        2.48973712      -5.80110922      -2.44049792
H        3.09170013       5.24339626      -2.54001418
O        3.14849418      -6.18683734       0.17804867
H        4.11116029       6.14549275       0.16615084
H        2.83009687       5.39840520      -0.14913049
O        3.18110748      -6.02513011       3.20727512
H        3.20656394      -5.74464417       4.13068273
H        4.10784883      -6.10958039       2.96160545
O        3.08556584      -3.26604501      -5.99617542
H        2.23655879      -2.97754753      -5.64599243
H        3.18733763      -4.15485833      -5.68456621
O        3.07636604      -3.12847690      -3.02243690
H        3.89915167      -3.50844965      -3.35166970
H        3.17187341      -3.15197610      -2.06153712
O        3.18633800      -3.15322188       0.12991919
H        2.85998652      -2.55090508      -0.55456711
H        3.91041313      -2.68178797       0.55478820
O        3.16765368      -3.04266347       3.14376207
H        4.11964169      -3.02331670       3.27803942
H        2.80146780      -2.94110252       4.04884003
O        3.29224883      -0.03716016      -6.11323847
H        3.25716298      -0.76511074      -5.48426071
H        2.64697061      -0.26827303       5.65885474
O        3.04355225       0.04609245      -3.09400041
H        2.47514667       0.74814873      -2.80748117
H        3.40699098       0.32718627      -3.94926018
O        3.19342375      -0.10178963       0.08152892
H        3.02818501      -1.03555123      -0.05218770
H        4.06811300       0.03591889      -0.26602351
O        3.16998243      -0.01456162       3.14666490
H        2.56003269       0.71773536       3.03632238
H        3.01494662      -0.53910988       2.37441841
O        3.05862809       3.02753924      -6.13149032
H        2.87676908       3.64295673       5.58443427
H        3.61848141       3.52064837      -5.53036564
O        3.24989869       3.23786254      -2.82918647
H        3.99158101       2.76030999      -2.48356822
H        3.34688196       3.17320222      -3.76727980
O        3.15208266       3.09840924       0.14810303
H        4.06331448       3.15628052      -0.13071479
H        3.03175028       2.19340380       0.42839633
O        3.06753474       3.15125144       3.18622892
H        3.25998553       2.22406118       3.39664455
H        2.25181490       3.14433583       2.69432210
179
Properties=species:S:1:pos:R:3 pbc="F F F"
O        0.00431042      -0.00429807       0.00133686
H        5.56778770      -5.53897936      -2.59862092
H       -5.47267302      -6.13945043      -2.68127375
O       -6.12611267       6.13238951       0.11631458
H       -6.01123195       5.17920251       0.21612241
H       -5.25334293      -5.90289233       0.17388703
H       -5.58846262      -5.47364809       2.69911226
H       -6.14900450      -2.45284136      -5.38484108
O       -6.13769389      -2.98669527      -3.00532946
H        5.92896993      -2.62889921      -2.16460554
H        6.17123443      -3.94984102      -2.95172961
O       -6.19750116      -3.14812230       0.04696930
H        5.51290576      -2.57683201       0.33297079
H        5.87271549      -4.04045184       0.07756204
O       -6.19888923      -3.11252404       3.02917633
H        5.55795342      -3.14603354       2.35689551
H        5.85588672      -3.59454051       3.80290450
O        6.02853585      -0.02685784      -6.01680559
H       -6.18328178      -0.71007575      -5.43506653
H       -5.83722273       0.67558360      -5.77085420
O       -6.12231968      -0.03529465      -2.91634034
H       -5.42125797      -0.35375375      -2.37579711
H        5.81046657       0.56092269      -2.36092975
O        6.17160835       0.06570540       0.06039194
H        5.33689785      -0.11475917       0.50832934
H        5.92237584       0.33448340      -0.82394699
O       -6.17497870      -0.11232189       3.19018012
H        6.02501585       0.39924137       3.96603990
H       -5.63141999      -0.84558023       3.50591041
H       -5.36287706       3.65315737       6.10947015
H        5.67696308       3.88146444      -5.71266553
O        6.18092536       3.21283943      -2.92724951
H        6.18546011       2.24391287      -2.72803171
H       -5.72691111       3.30456649      -3.75704435
O        6.10916321       3.15884272       0.18454568
H       -5.40927445       3.21022784      -0.01368545
H        5.96901883       3.86876423       0.80190749
O       -6.15914513       3.02067464       3.19559703
H        5.77633815       3.11557887       2.37408354
H        5.92919385       3.72788669       3.73036220
H       -2.70203133       5.91688448       5.39971589
O       -2.97777980      -6.08087629      -3.05052050
H       -2.87590108      -5.30098287      -3.57474140
H       -2.06545212       6.12207069      -2.75194999
O       -3.04745624      -6.08762739       0.22822997
H       -3.52297119      -5.95071602      -0.59210019
H       -2.34968150       5.66695707       0.02605061
O       -3.02919447       6.21450080       3.12054300
H       -3.07945040       5.24137178       3.18066825
H       -2.26202684      -5.98532336       3.67603935
O       -3.01188035      -3.23329741      -6.03285838
H       -3.12860287      -3.61498172      -5.16671483
H       -2.78482438      -3.99029610       5.86633405
O       -3.03698390      -3.00191376      -3.05348826
H       -2.53545637      -2.52523129      -3.72245592
H       -2.36144439      -3.23779677      -2.36791545
O       -3.05244359      -3.09833152       0.12661746
H       -3.40572933      -3.96112057      -0.09050136
H       -3.84763617      -2.57351329       0.34823836
O       -3.07706845      -3.10959895       3.11351937
H       -2.50852933      -3.03996897       2.31631378
H       -2.90004727      -2.31005299       3.60041181
O       -3.16358110      -0.01167096      -6.17221503
H       -4.10427780       0.12817554       6.15273619
H       -2.87265091      -0.34460233       5.43344135
O       -2.97265011       0.01567118      -2.94789274
H       -3.78584711      -0.22612753      -2.47988063
H       -2.71014191      -0.77762645      -3.38622715
O       -2.87055173       0.05420116       0.13277681
H       -2.92194946       0.92969821      -0.28853643
H       -2.34944826      -0.46665167      -0.50117170
O       -2.98464483       0.06013802       3.31154384
H       -3.16278528       0.51391885       2.46404710
H       -3.03409089       0.77137912       3.97537335
O       -2.92848022       3.14698401      -6.16512838
H       -1.96666088       3.15936665       6.09291204
H       -2.98268338       2.96244227      -5.23705638
O       -3.24682969       3.06487104      -3.06311479
H       -2.49425166       2.95309610      -3.62792719
H       -3.78147684       2.26288669      -3.23868835
O       -3.14393643       3.09032356       0.11551360
H       -3.27901634       2.48955214       0.82313582
H       -2.18280736       3.20495536       0.03650189
O       -3.15073591       3.16369143       3.22811944
H       -2.60215545       3.54127144       3.90480001
H       -3.56293422       3.90984818       2.75010489
O        0.04517426      -6.11972678      -6.08544537
H       -0.07100366      -5.32571517      -5.60822214
H        0.87226154       5.94255105      -5.76715337
O        0.24734290      -6.06556968      -2.86884465
H        0.03169423      -5.44496114      -3.53759469
H       -0.29583536       5.61228484      -3.04454229
O        0.00415400       6.18072317       0.14245805
H       -0.94566580      -6.00674049       0.13752449
H       -0.04224296       5.33043114       0.55935013
O        0.04615387      -6.12546602       3.32318650
H       -0.28340058      -6.05579744       2.38077635
H        0.56645792      -5.32689180       3.40519623
O        0.09476574      -2.92756591      -6.11571819
H       -0.81082087      -2.70367516       6.08695291
H        0.21191601      -3.76939928       5.92368358
O        0.05905409      -3.03851952      -3.02209769
H        0.87609195      -3.24305822      -3.45283523
H       -0.58293800      -3.07291887      -3.73450556
O        0.10685107      -3.19035565       0.06504920
H        0.92639647      -3.34425941       0.50612478
H       -0.41594213      -2.70349921       0.70646465
O        0.01060830      -3.01999934       3.22807497
H       -0.66014849      -2.76708945       3.86303639
H       -0.08625304      -3.98148786       3.14703574
O        0.01877355      -0.07738163      -6.11994000
H        0.28376375      -0.90954340       5.95061318
H       -0.39378650       0.39221767       5.56306921
O        0.05947853       0.12079118      -3.07199202
H        0.17367330      -0.03550590      -2.14940983
H        0.52381537      -0.62765164      -3.47338762
H       -0.24810195       0.69506549       0.59539016
H        0.58361271      -0.58386815       0.51164272
O       -0.01325631       0.09874702       3.39354810
H       -0.38940692       0.51159296       2.61583506
H        0.94427424       0.33457992       3.38225678
O       -0.02253182       3.13136599      -6.07958756
H        0.74848500       3.67297949      -5.90820849
H        0.03454384       2.95343592       5.41073742
O        0.07210091       3.09640181      -3.08800081
H       -0.61449684       3.74241674      -2.90833954
H        0.61725211       3.49379448      -3.78758565
O        0.10001984       3.12551566       0.18287995
H        0.31357226       4.04081343       0.40890826
H       -0.49578301       2.86711167       0.89326571
O        0.09816989       3.18178805       3.06837106
H       -0.40925968       2.44445162       2.71093822
H       -0.28135799       3.94329861       2.63043488
H        2.60249466      -5.63287300      -5.36943968
O        3.11731847       6.12197281      -2.94439539
H        2.49139464      -5.80899231      -2.44147855
H        3.09297384       5.23371212      -2.53695203
O        3.14555424      -6.18461464       0.17793071
H        4.11754300       6.14118395       0.16963806
H        2.83466525       5.39006547      -0.13938444
O        3.18230087      -6.02861015       3.20526293
H        3.20327508      -5.74906068       4.13706191
H        4.11728113      -6.10023543       2.96519680
O        3.08680139      -3.26693212      -5.99618252
H        2.23353552      -2.97008056      -5.64827420
H        3.18193493      -4.15080108      -5.69500782
O        3.07495525      -3.12396342      -3.02134627
H        3.90958578      -3.49806692      -3.34832187
H        3.17303134      -3.14404848      -2.05315124
O        3.18201739      -3.15183408       0.13009700
H        2.84997528      -2.53627378      -0.55457262
H        3.90482266      -2.68586253       0.57533035
O        3.17110350      -3.03974867       3.13722684
H        4.12469496      -3.01643428       3.28887602
H        2.79293877      -2.93629534       4.06154513
O        3.29057052      -0.03809564      -6.11453665
H        3.25376814      -0.77326260      -5.48578250
H        2.63507937      -0.26120494       5.67274854
O        3.04293559       0.04963493      -3.09326020
H        2.47470744       0.74104712      -2.80283619
H        3.42364987       0.32370328      -3.95828708
O        3.19405139      -0.10094163       0.08109421
H        3.03088752      -1.03718483      -0.04176546
H        4.06089197       0.03453083      -0.27387292
O        3.17141081      -0.01570573       3.14596896
H        2.55232826       0.71062769       3.03053520
H        2.99914325      -0.53181074       2.38134050
O        3.05864508       3.02269842      -6.13122630
H        2.87903899       3.63717899       5.57851089
H        3.62904699       3.51714373      -5.53963917
O        3.25064204       3.23884022      -2.83187963
H        3.98605189       2.76166392      -2.49390983
H        3.35385905       3.18847181      -3.76023210
O        3.15303779       3.09706187       0.14404747
H        4.06572943       3.16817076      -0.12320517
H        3.03111566       2.19418720       0.42528766
O        3.06808655       3.15309760       3.18685887
H        3.26435945       2.21842120       3.41264350
H        2.26014714       3.16306253       2.68807749
179
Properties=species:S:1:pos:R:3 pbc="F F F"
O        0.00654611      -0.00655493       0.00196874
H        5.55971803      -5.54567311      -2.60520220
H       -5.47348890      -6.14895396      -2.66763157
O       -6.12266017       6.13272071       0.11558817
H       -6.02165712       5.17589767       0.22355488
H       -5.25102624      -5.89714121       0.18032600
H       -5.58017871      -5.46646798       2.70705592
H       -6.15346877      -2.45260153      -5.39111593
O       -6.13694471      -2.98483828      -3.00708894
H        5.93791691      -2.61357617      -2.15607128
H        6.18653191      -3.95512453      -2.94173510
O       -6.19813597      -3.14678478       0.05019946
H        5.51487269      -2.56996995       0.33629156
H        5.87292074      -4.04313041       0.08501225
O       -6.19972037      -3.11336411       3.02977124
H        5.56080889      -3.14546688       2.35574708
H        5.85526010      -3.59813511       3.81634191
O        6.02880387      -0.02698583      -6.01861864
H       -6.19395317      -0.69627333      -5.43343059
H       -5.84133541       0.67134075      -5.77502339
O       -6.12123148      -0.03692430      -2.91545169
H       -5.42362281      -0.34857520      -2.37445600
H        5.79380404       0.54996004      -2.36682663
O        6.17133802       0.06751610       0.05900655
H        5.33507840      -0.12047415       0.50759132
H        5.92728565       0.33878786      -0.82508212
O       -6.17604131      -0.11214897       3.19192277
H        6.02126109       0.40800446       3.96298571
H       -5.62764770      -0.84757336       3.50622868
H       -5.36187722       3.65507328       6.11251473
H        5.66773424       3.87997504      -5.70784308
O        6.18012638       3.21189699      -2.92443900
H        6.18999309       2.23236857      -2.72170724
H       -5.72614863       3.30864157      -3.76631000
O        6.10666859       3.16124009       0.18324710
H       -5.41442637       3.20442930      -0.00490034
H        5.96701815       3.87883570       0.78984452
O       -6.15835900       3.02204465       3.19685837
H        5.76589505       3.11728862       2.37946657
H        5.91785828       3.72287795       3.73073527
H       -2.70104478       5.92992617       5.40537649
O       -2.98004583      -6.08065752      -3.04869789
H       -2.87650941      -5.29328435      -3.55719064
H       -2.06025200       6.11443151      -2.74308365
O       -3.04749309      -6.08717131       0.22750435
H       -3.52897289      -5.95103589      -0.59211439
H       -2.34741711       5.65009370       0.02812036
O       -3.03125343       6.21418869       3.11784538
H       -3.08097841       5.23535456       3.18059745
H       -2.25725375      -5.98594223       3.67758026
O       -3.01211614      -3.23432799      -6.03272508
H       -3.13090387      -3.62106171      -5.16895023
H       -2.78427082      -3.99792267       5.87561458
O       -3.03463796      -3.00144186      -3.05548188
H       -2.53303055      -2.52727923      -3.73018283
H       -2.34386945      -3.24392581      -2.36622306
O       -3.05060688      -3.09642203       0.12929094
H       -3.40515565      -3.95928238      -0.08529874
H       -3.85606275      -2.57112095       0.35085327
O       -3.07902623      -3.10967312       3.11490508
H       -2.50231094      -3.03235017       2.31161438
H       -2.91040666      -2.30958004       3.60363705
O       -3.16584260      -0.01122198      -6.17427235
H       -4.10762006       0.13184242       6.15774377
H       -2.87954746      -0.33771191       5.43427336
O       -2.97446002       0.01731685      -2.95088994
H       -3.78672020      -0.22832812      -2.47668859
H       -2.71107961      -0.77300221      -3.38463664
O       -2.86880204       0.05058634       0.13725006
H       -2.91027480       0.93170689      -0.28916650
H       -2.34611389      -0.47102274      -0.50563050
O       -2.98129538       0.05896758       3.31117405
H       -3.15880937       0.51311390       2.45431864
H       -3.03716339       0.78070073       3.97382676
O       -2.92927807       3.14826001      -6.16852742
H       -1.95748068       3.16925315       6.09455490
H       -2.97707313       2.96554420      -5.24267072
O       -3.24593342       3.06133482      -3.06061312
H       -2.50209304       2.95511401      -3.63528823
H       -3.78129938       2.25110699      -3.24772405
O       -3.14214837       3.08879358       0.11851206
H       -3.28005414       2.48603428       0.81808029
H       -2.17631960       3.20924875       0.02961763
O       -3.14789828       3.16348279       3.22642519
H       -2.61169847       3.53430701       3.91576086
H       -3.56741070       3.90536263       2.73297508
O        0.04208306      -6.11981127      -6.08670175
H       -0.08126408      -5.33211164      -5.61506455
H        0.86763896       5.93976181      -5.76229107
O        0.24647096      -6.06474574      -2.86997962
H        0.02936512      -5.44405701      -3.53028744
H       -0.29846482       5.61738669      -3.03775486
O        0.00389142       6.18206082       0.13978048
H       -0.95623760      -6.00633372       0.14909202
H       -0.06543970       5.33290347       0.54860076
O        0.04547793      -6.12727958       3.32776324
H       -0.27956017      -6.04686468       2.36540305
H        0.56634696      -5.32685608       3.40026121
O        0.09671135      -2.92946379      -6.11463443
H       -0.81439463      -2.71441010       6.08511703
H        0.20991982      -3.77092936       5.93582929
O        0.05988573      -3.03569699      -3.02003876
H        0.86973474      -3.24546065      -3.45806115
H       -0.58543463      -3.07738049      -3.73119234
O        0.10486100      -3.19034379       0.06680324
H        0.92778407      -3.34219909       0.49579418
H       -0.41373828      -2.71311289       0.72291091
O        0.01145530      -3.02005722       3.22549806
H       -0.65615367      -2.76541609       3.86471321
H       -0.08450507      -3.98654480       3.15188197
O        0.01810801      -0.07909382      -6.11940544
H        0.28736984      -0.90818948       5.95721328
H       -0.39862877       0.38800929       5.55605665
O        0.06125835       0.11845724      -3.07222678
H        0.18510704      -0.04012102      -2.15443802
H        0.53303380      -0.63354001      -3.46985760
H       -0.25700482       0.69497954       0.58561898
H        0.58522576      -0.58737342       0.51799206
O       -0.01098053       0.09800967       3.39319698
H       -0.38710535       0.50686094       2.61280608
H        0.95674970       0.33846821       3.39553102
O       -0.02647917       3.13289551      -6.08103286
H        0.75125614       3.66691124      -5.90987677
H        0.03836423       2.95792454       5.40768880
O        0.07511973       3.09377731      -3.08961862
H       -0.60951949       3.74194652      -2.90556202
H        0.63553083       3.49639091      -3.78236786
O        0.09865566       3.12591924       0.18112614
H        0.31095649       4.04576068       0.39985926
H       -0.49095698       2.88178214       0.90539386
O        0.09784550       3.18160497       3.06712308
H       -0.41729132       2.44195695       2.71791951
H       -0.29292570       3.93939528       2.62942347
H        2.60002589      -5.64939269      -5.35528693
O        3.11718850       6.12146488      -2.94571558
H        2.49136644      -5.81579221      -2.44113110
H        3.09458577       5.22475617      -2.53495194
O        3.14274134      -6.18240667       0.17777684
H        4.12237688       6.13712951       0.17311671
H        2.83915534       5.38139267      -0.12934020
O        3.18353942      -6.03208316       3.20337039
H        3.20000780      -5.75387595       4.14214180
H        4.12608119      -6.09092530       2.96890895
O        3.08793881      -3.26758488      -5.99625049
H        2.23117004      -2.96258201      -5.65074464
H        3.17738671      -4.14888416      -5.70538827
O        3.07356843      -3.11949752      -3.02017570
H        3.91934333      -3.48697126      -3.34485710
H        3.17419579      -3.13699981      -2.04689148
O        3.17766896      -3.15032313       0.13015625
H        2.83984643      -2.52324134      -0.55303719
H        3.89771324      -2.69045906       0.59643991
O        3.17448958      -3.03676873       3.13089818
H        4.12870240      -3.00900607       3.30056788
H        2.78619515      -2.93184732       4.07058267
O        3.28896420      -0.03905359      -6.11566777
H        3.25056836      -0.78148837      -5.48838263
H        2.62152659      -0.25438053       5.68501072
O        3.04257446       0.05304694      -3.09266442
H        2.47185919       0.73645637      -2.79802881
H        3.43888149       0.32047714      -3.96533487
O        3.19456912      -0.10009233       0.08077225
H        3.03304094      -1.03864953      -0.03141300
H        4.05453034       0.03410926      -0.28375262
O        3.17275913      -0.01666119       3.14544259
H        2.54540221       0.70359978       3.02467682
H        2.98347366      -0.52726187       2.38563364
O        3.05862114       3.01789576      -6.13091401
H        2.88175869       3.63140753       5.57176946
H        3.63971505       3.51395393      -5.54960741
O        3.25117106       3.23992052      -2.83445219
H        3.98313869       2.76215531      -2.50317606
H        3.36087763       3.20320686      -3.75627416
O        3.15391439       3.09577427       0.13997720
H        4.06941051       3.17984128      -0.11573670
H        3.03051461       2.19421094       0.42227300
O        3.06874694       3.15477890       3.18761776
H        3.26914942       2.21580961       3.42843077
H        2.26732380       3.18191374       2.68101967
179
Properties=species:S:1:pos:R:3 pbc="F F F"
O        0.00886239      -0.00892161       0.00257192
H        5.54954965      -5.55191473      -2.61004446
H       -5.47217349      -6.15847204      -2.65303690
O       -6.11926075       6.13311523       0.11486962
H       -6.03135287       5.17439834       0.22978441
H       -5.24843326      -5.89234818       0.18754833
H       -5.57190919      -5.45907130       2.71423300
H       -6.15821935      -2.45241800      -5.39546601
O       -6.13631955      -2.98302273      -3.00874236
H        5.94832861      -2.60000790      -2.14994293
H        6.20246407      -3.95827575      -2.93149019
O       -6.19877421      -3.14547594       0.05340638
H        5.51809578      -2.56293862       0.33917795
H        5.87278950      -4.04569402       0.09245266
O       -6.20057759      -3.11432140       3.03062969
H        5.56328155      -3.14534313       2.35352432
H        5.85616223      -3.59991958       3.82724793
O        6.02890708      -0.02701274      -6.02079022
H       -6.20341425      -0.68683994      -5.42723433
H       -5.84360485       0.67178597      -5.77790687
O       -6.12027269      -0.03848399      -2.91471808
H       -5.42406580      -0.34508773      -2.37109299
H        5.77572539       0.53909619      -2.37339740
O        6.17101158       0.06926632       0.05762149
H        5.33512156      -0.12577896       0.50862504
H        5.93237990       0.34331399      -0.82561982
O       -6.17705490      -0.11202615       3.19361573
H        6.01738574       0.41669407       3.96050156
H       -5.62467487      -0.84892507       3.50647098
H       -5.36125011       3.65658332       6.11583659
H        5.65941481       3.87877574      -5.70346985
O        6.17939551       3.21069299      -2.92171261
H        6.19536786       2.22527142      -2.71704110
H       -5.72710404       3.31212373      -3.77303200
O        6.10390474       3.16363130       0.18196127
H       -5.41452450       3.19809371       0.00230239
H        5.96410742       3.88894554       0.77947180
O       -6.15753630       3.02340440       3.19801122
H        5.75522326       3.11768712       2.38580556
H        5.90568871       3.71896223       3.73250909
H       -2.69944255       5.94235740       5.40973929
O       -2.98215166      -6.08064045      -3.04664595
H       -2.87682382      -5.28339340      -3.54090225
H       -2.05860198       6.10815615      -2.73543903
O       -3.04736395      -6.08684865       0.22676066
H       -3.53379486      -5.95238710      -0.59388986
H       -2.34987167       5.63520511       0.03039429
O       -3.03321877       6.21374989       3.11528136
H       -3.08220612       5.23257167       3.18058807
H       -2.25333557      -5.98649342       3.67718046
O       -3.01223912      -3.23529169      -6.03259499
H       -3.13420459      -3.62738611      -5.16998105
H       -2.78391261      -4.00704838       5.88334690
O       -3.03207225      -3.00107298      -3.05738968
H       -2.53074440      -2.52935512      -3.73759034
H       -2.32899108      -3.24862118      -2.36639891
O       -3.04888562      -3.09437682       0.13198120
H       -3.40428586      -3.95761453      -0.07958049
H       -3.86229343      -2.56982806       0.35304489
O       -3.08083652      -3.10982077       3.11616760
H       -2.49828012      -3.02488812       2.30877957
H       -2.92112463      -2.30747288       3.60701205
O       -3.16815383      -0.01067707      -6.17607643
H       -4.11140157       0.13518882       6.16225815
H       -2.88532249      -0.33308637       5.43143627
O       -2.97644547       0.01914527      -2.95371709
H       -3.78526551      -0.23042718      -2.47406918
H       -2.71098898      -0.77000366      -3.38448312
O       -2.86705742       0.04707319       0.14163911
H       -2.89850534       0.93178618      -0.28980564
H       -2.34307163      -0.47470967      -0.50888683
O       -2.97792131       0.05795644       3.31078451
H       -3.15504250       0.51060141       2.44671401
H       -3.04058490       0.78923188       3.97021550
O       -2.92995408       3.14956096      -6.17214248
H       -1.94985459       3.17912285       6.09767108
H       -2.97223988       2.96822184      -5.24678671
O       -3.24524067       3.05770998      -3.05812653
H       -2.50746683       2.95622558      -3.64290792
H       -3.77899983       2.24096645      -3.25573327
O       -3.14025786       3.08743958       0.12132594
H       -3.28135211       2.48026130       0.81664560
H       -2.17133734       3.21286986       0.02229799
O       -3.14512051       3.16332048       3.22451202
H       -2.62069943       3.52793025       3.92854337
H       -3.57182652       3.89767243       2.71704053
O        0.03902628      -6.12008600      -6.08811030
H       -0.09246375      -5.33517539      -5.61914383
H        0.86321590       5.93695912      -5.75766963
O        0.24570257      -6.06395397      -2.87089939
H        0.02603523      -5.44028127      -3.52540290
H       -0.30175070       5.62002937      -3.03180987
O        0.00337810       6.18348732       0.13714163
H       -0.96383154      -6.00379755       0.16005411
H       -0.08770921       5.33450006       0.53881048
O        0.04457917      -6.12907729       3.33199451
H       -0.27391133      -6.03814962       2.35418640
H        0.56877129      -5.32780478       3.39593878
O        0.09860494      -2.93118200      -6.11342397
H       -0.81915725      -2.72465185       6.08413656
H        0.20925924      -3.77634780       5.94537015
O        0.06054887      -3.03288931      -3.01796259
H        0.86638227      -3.24792789      -3.46371988
H       -0.58761220      -3.08124163      -3.72825750
O        0.10275224      -3.19025867       0.06848994
H        0.93161987      -3.34126874       0.48710649
H       -0.41203431      -2.72299036       0.73944107
O        0.01233965      -3.02021681       3.22289931
H       -0.65274645      -2.76340423       3.86615879
H       -0.08348086      -3.98939452       3.15625853
O        0.01734755      -0.08062263      -6.11891172
H        0.29185643      -0.90883209       5.96271621
H       -0.40241303       0.38267227       5.55064736
O        0.06307562       0.11605318      -3.07263668
H        0.19647972      -0.04485407      -2.15604497
H        0.54170099      -0.63837112      -3.46641356
H       -0.26620224       0.69555906       0.57593638
H        0.58615931      -0.59033029       0.52378254
O       -0.00846581       0.09734236       3.39287465
H       -0.38523166       0.50142500       2.60957155
H        0.96536895       0.34104035       3.40900403
O       -0.03049418       3.13442747      -6.08252553
H        0.75460839       3.66061365      -5.91170127
H        0.04269503       2.96225059       5.40404291
O        0.07816240       3.09124916      -3.09128185
H       -0.60440254       3.74102110      -2.90280738
H        0.65258033       3.49793388      -3.77568596
O        0.09716870       3.12635449       0.17940954
H        0.30994236       4.04845069       0.38978208
H       -0.48535178       2.89635453       0.91732855
O        0.09748123       3.18134924       3.06587745
H       -0.42499702       2.43958554       2.72629773
H       -0.30426163       3.93687255       2.62909168
H        2.59847258      -5.66753605      -5.34080852
O        3.11718988       6.12078506      -2.94710841
H        2.48942937      -5.82129216      -2.43925957
H        3.09657421       5.21734675      -2.53439957
O        3.14010253      -6.18025072       0.17757639
H        4.12486907       6.13353134       0.17660642
H        2.84360495       5.37278289      -0.11886634
O        3.18485837      -6.03553893       3.20163013
H        3.19674017      -5.75927737       4.14530085
H        4.13372064      -6.08162934       2.97286167
O        3.08894679      -3.26793270      -5.99638792
H        2.22995026      -2.95532909      -5.65357409
H        3.17367265      -4.15002832      -5.71542143
O        3.07224841      -3.11509569      -3.01890408
H        3.92784532      -3.47490101      -3.34106483
H        3.17531557      -3.13083342      -2.04330693
O        3.17329366      -3.14865068       0.13007868
H        2.83001640      -2.51228338      -0.54932228
H        3.88865596      -2.69571803       0.61775814
O        3.17780128      -3.03371398       3.12487080
H        4.13134642      -3.00103053       3.31296727
H        2.78175871      -2.92792064       4.07457231
O        3.28744509      -0.04006015      -6.11659668
H        3.24763101      -0.78936975      -5.49233376
H        2.60601056      -0.24779372       5.69539206
O        3.04252117       0.05631030      -3.09227227
H        2.46642910       0.73477853      -2.79314385
H        3.45205045       0.31740992      -3.96939218
O        3.19495453      -0.09925012       0.08057238
H        3.03468243      -1.03987441      -0.02108594
H        4.04940846       0.03472070      -0.29584282
O        3.17401826      -0.01739738       3.14509900
H        2.53943629       0.69678655       3.01893962
H        2.96796719      -0.52601368       2.38686078
O        3.05855453       3.01315641      -6.13057417
H        2.88499096       3.62532763       5.56455241
H        3.65042479       3.51097398      -5.56030191
O        3.25144734       3.24112426      -2.83686305
H        3.98338807       2.76142188      -2.51101622
H        3.36801650       3.21747449      -3.75640172
O        3.15471079       3.09455990       0.13588945
H        4.07427273       3.19113837      -0.10827480
H        3.03004912       2.19340328       0.41935472
O        3.06954908       3.15626051       3.18853304
H        3.27390111       2.21699249       3.44359537
H        2.27328521       3.20059743       2.67312715
179
Properties=species:S:1:pos:R:3 pbc="F F F"
O        0.01127067      -0.01141356       0.00314385
H        5.53740748      -5.55769379      -2.61311717
H       -5.46898875      -6.16790824      -2.63744557
O       -6.11591380       6.13357531       0.11415682
H       -6.04013240       5.17501366       0.23479010
H       -5.24572885      -5.88877320       0.19558068
H       -5.56394494      -5.45171614       2.72066120
H       -6.16326346      -2.45220873      -5.39779772
O       -6.13583138      -2.98125305      -3.01025287
H        5.96039862      -2.58861920      -2.14682658
H       -6.21062534      -3.95885591      -2.92095662
O       -6.19942071      -3.14421575       0.05659109
H        5.52252258      -2.55585823       0.34160596
H        5.87239480      -4.04770473       0.09987179
O       -6.20146544      -3.11541267       3.03179025
H        5.56526874      -3.14573151       2.35032250
H        5.85875258      -3.59955612       3.83495061
O        6.02883540      -0.02692284      -6.02335013
H       -6.21162025      -0.68222570      -5.41598249
H       -5.84393709       0.67709879      -5.77948916
O       -6.11945455      -0.03996858      -2.91415171
H       -5.42252166      -0.34323990      -2.36553424
H        5.75629283       0.52821927      -2.38062977
O        6.17062544       0.07094858       0.05625629
H        5.33716716      -0.13057386       0.51119260
H        5.93753041       0.34811640      -0.82566468
O       -6.17801427      -0.11195879       3.19526810
H        6.01354278       0.42505978       3.95842630
H       -5.62272641      -0.84930465       3.50664494
H       -5.36136449       3.65758873       6.11956015
H        5.65220708       3.87779857      -5.69962976
O        6.17875475       3.20920293      -2.91910275
H        6.20159579       2.22314490      -2.71418823
H       -5.73014517       3.31484606      -3.77653356
O        6.10087530       3.16601855       0.18068665
H       -5.40965082       3.19118496       0.00798409
H        5.96028950       3.89899858       0.77083593
O       -6.15669392       3.02476853       3.19905154
H        5.74446728       3.11669101       2.39310490
H        5.89280718       3.71600609       3.73570840
H       -2.69722152       5.95418128       5.41274153
O       -2.98406474      -6.08083291      -3.04435755
H       -2.87682135      -5.27137206      -3.52575335
H       -2.06106064       6.10344992      -2.72924254
O       -3.04705158      -6.08668680       0.22597654
H       -3.53720886      -5.95486596      -0.59713687
H       -2.35752731       5.62282106       0.03293170
O       -3.03506186       6.21317942       3.11287336
H       -3.08312283       5.23318303       3.18064200
H       -2.25073470      -5.98712337       3.67449224
O       -3.01224340      -3.23621846      -6.03246637
H       -3.13853468      -3.63377458      -5.16986935
H       -2.78380483      -4.01739319       5.88956565
O       -3.02923751      -3.00081496      -3.05918469
H       -2.52873251      -2.53158495      -3.74448688
H       -2.31745914      -3.25161863      -2.36904402
O       -3.04731380      -3.09217739       0.13469628
H       -3.40308535      -3.95616286      -0.07336393
H       -3.86582121      -2.56989277       0.35470181
O       -3.08247263      -3.11002922       3.11727715
H       -2.49685658      -3.01764257       2.30838230
H       -2.93220452      -2.30388666       3.61043780
O       -3.17052684      -0.01003012      -6.17761167
H       -4.11544873       0.13817072       6.16626840
H       -2.88994901      -0.33078047       5.42468405
O       -2.97861666       0.02116674      -2.95636316
H       -3.78141306      -0.23238929      -2.47207098
H       -2.70977047      -0.76886176      -3.38588612
O       -2.86529506       0.04367420       0.14589746
H       -2.88669354       0.92953406      -0.29017310
H       -2.34062505      -0.47750334      -0.51049680
O       -2.97453238       0.05714728       3.31036677
H       -3.15138374       0.50612758       2.44169669
H       -3.04430425       0.79654146       3.96421175
O       -2.93046173       3.15089069      -6.17598480
H       -1.94440797       3.18895408       6.10225385
H       -2.96827088       2.97043835      -5.24924998
O       -3.24476419       3.05395838      -3.05567106
H       -2.51040609       2.95654457      -3.65071278
H       -3.77433381       2.23298336      -3.26251112
O       -3.13824346       3.08627349       0.12394702
H       -3.28275295       2.47222649       0.81878035
H       -2.16831862       3.21561055       0.01472051
O       -3.14240767       3.16321349       3.22236841
H       -2.62942490       3.52223642       3.94290028
H       -3.57584186       3.88660415       2.70275553
O        0.03601980      -6.12057920      -6.08968326
H       -0.10465693      -5.33460844      -5.62022762
H        0.85876778       5.93428131      -5.75332853
O        0.24505220      -6.06319672      -2.87159228
H        0.02160709      -5.43351617      -3.52307875
H       -0.30581190       5.62012508      -3.02675853
O        0.00256374       6.18501682       0.13454749
H       -0.96790612      -5.99898704       0.17024198
H       -0.10887892       5.33483136       0.53007661
O        0.04345055      -6.13083044       3.33581284
H       -0.26627368      -6.02994668       2.34804243
H        0.57368488      -5.32991080       3.39235586
O        0.10040893      -2.93271195      -6.11209871
H       -0.82460323      -2.73442648       6.08416493
H        0.21001902      -3.78574625       5.95234208
O        0.06104657      -3.03010162      -3.01588684
H        0.86594037      -3.25042235      -3.46969065
H       -0.58942088      -3.08445914      -3.72554116
O        0.10051335      -3.19008938       0.07013035
H        0.93788750      -3.34147445       0.48000498
H       -0.41061484      -2.73330771       0.75579036
O        0.01325110      -3.02048954       3.22028431
H       -0.64980351      -2.76108460       3.86726052
H       -0.08315600      -3.98980937       3.16019303
O        0.01647950      -0.08194580      -6.11847608
H        0.29723309      -0.91163466       5.96706373
H       -0.40495770       0.37600486       5.54715964
O        0.06494650       0.11355475      -3.07322378
H        0.20773248      -0.04961427      -2.15420907
H        0.54960367      -0.64185103      -3.46303311
H       -0.27567843       0.69683010       0.56645598
H        0.58620386      -0.59249905       0.52893454
O       -0.00568156       0.09675027       3.39258916
H       -0.38360388       0.49529770       2.60618517
H        0.96944752       0.34220942       3.42251067
O       -0.03456042       3.13596758      -6.08408579
H        0.75838793       3.65400633      -5.91358361
H        0.04741088       2.96639994       5.40001906
O        0.08124407       3.08882501      -3.09300511
H       -0.59906009       3.73962888      -2.90014580
H        0.66808929       3.49831100      -3.76722665
O        0.09554360       3.12682635       0.17774864
H        0.31063537       4.04890896       0.37858824
H       -0.47880826       2.91075932       0.92887652
O        0.09705997       3.18102387       3.06461759
H       -0.43224234       2.43746688       2.73618689
H       -0.31525543       3.93555388       2.62959150
H        2.59815735      -5.68746036      -5.32633269
O        3.11731858       6.11989692      -2.94855605
H        2.48563488      -5.82550638      -2.43589072
H        3.09896288       5.21206544      -2.53556349
O        3.13766746      -6.17818320       0.17731988
H        4.12451484       6.13056955       0.18012126
H        2.84803847       5.36463765      -0.10784538
O        3.18628537      -6.03897015       3.20006287
H        3.19345275      -5.76538056       4.14615119
H        4.13978920      -6.07235019       2.97712878
O        3.08980759      -3.26793659      -5.99659704
H        2.23021785      -2.94856653      -5.65686799
H        3.17070625      -4.15468660      -5.72498703
O        3.07102792      -3.11076942      -3.01752420
H        3.93465818      -3.46167670      -3.33682056
H        3.17634811      -3.12554260      -2.04263012
O        3.16889325      -3.14679526       0.12985804
H        2.82078429      -2.50367743      -0.54304172
H        3.87734222      -2.70171090       0.63898175
O        3.18103670      -3.03057844       3.11920585
H        4.13243133      -2.99251198       3.32589713
H        2.77989048      -2.92461367       4.07269095
O        3.28600867      -0.04114019      -6.11731491
H        3.24501704      -0.79660249      -5.49780156
H        2.58855138      -0.24133657       5.70396070
O        3.04279593       0.05942864      -3.09210953
H        2.45859502       0.73597301      -2.78842558
H        3.46267994       0.31449424      -3.96982082
O        3.19520382      -0.09841937       0.08049723
H        3.03586691      -1.04078965      -0.01075599
H        4.04559867       0.03636092      -0.31020121
O        3.17517521      -0.01791288       3.14491801
H        2.53455506       0.69036578       3.01348410
H        2.95276348      -0.52819427       2.38515749
O        3.05844391       3.00850515      -6.13022843
H        2.88878535       3.61862896       5.55719935
H        3.66112693       3.50810325      -5.57174117
O        3.25146168       3.24245316      -2.83909884
H        3.98692005       2.75937873      -2.51731685
H        3.37530972       3.23136457      -3.76093559
O        3.15543540       3.09342690       0.13178049
H        4.08006039       3.20189319      -0.10073897
H        3.02983149       2.19179249       0.41650870
O        3.07050628       3.15753332       3.18961766
H        3.27824243       2.22231969       3.45780501
H        2.27819634       3.21882343       2.66452732
