192
Lattice="12.429633119082435 0.0 0.0 0.0 12.429633119082435 0.0 0.0 0.0 12.429633119082435" Properties=species:S:1:pos:R:3 pbc="T T T"
O        0.07638047       0.00287602      12.41819874
H        0.17495305       0.53587347       0.77750732
H        0.56941205       0.47447549      11.74682281
O       12.27162331      12.39333159       3.23318613
H       11.79291365       0.68932362       3.63385687
H        0.74948161       0.09383355       3.50842425
O        0.08164048      12.34677416       6.33261168
H        0.22586312      11.40389180       6.41263992
H        0.95831649       0.29872493       6.37805113
O        0.14188292       0.13682734       9.48472814
H        0.53494714       0.29182775      10.34362699
H        0.61073113       0.72825689       8.89598008
O        0.14087366       3.11395663       0.14437275
H        0.26315661       2.27935394       0.59682945
H        0.07395512       3.76038052       0.84714577
O        0.07535749       3.22432257       3.21309247
H       12.12879885       3.55244652       4.02982149
H       12.35730181       2.27907571       3.24355921
O        0.01861954       3.06399212       6.25524226
H       11.72731880       3.62554390       6.54010330
H       12.08582242       2.17833902       6.27748501
O        0.01754234       3.10375111       9.24330634
H       11.76688546       3.06663710       8.57095233
H       12.07513284       2.63050829       9.98752228
O       12.24256192       6.18838377       0.20091573
H        0.05526252       5.46995914       0.78518643
H        0.38890188       6.90932622       0.45533437
O        0.09006548       6.18294044       3.29637668
H        0.80199213       5.84629773       3.84049429
H       12.05454332       6.79805905       3.86337889
O       12.38685030       6.27674683       6.27790908
H       11.55988278       6.11228873       6.73102065
H       12.12830077       6.54121890       5.39505093
O        0.04206452       6.10206195       9.40133541
H       12.24644612       6.59710986      10.18900360
H        0.57467253       5.37335430       9.71999778
O        0.06160318       9.40568704       0.17886700
H        0.85061335       9.86343639      12.31839614
H       11.91194528      10.10055978       0.49160590
O       12.39740451       9.42898771       3.28187566
H       12.39354690       8.49055708       3.47046228
H        0.48368075       9.51045593       2.47973334
O       12.32837383       9.36888133       6.40197713
H        0.82739469       9.43511469       6.17961085
H       12.18546725      10.06332485       7.04506169
O        0.05425770       9.23272056       9.40765982
H       12.01057541       9.32345173       8.58063370
H       12.16420343       9.95550282       9.94767614
O        3.17726181      12.21672386       0.06050571
H        2.23307320      12.08138367      12.40999687
H        3.51223574      12.10387516      11.60059429
O        3.24180675       0.13307053       3.16119457
H        3.34063570       0.90353267       2.60186215
H        4.13265197      12.35490127       3.44305412
O        3.16773227       0.12608388       6.44451796
H        2.70656038       0.26212768       5.61684387
H        3.85042133      11.91773222       6.23680924
O        3.18986429       0.00003983       9.34102552
H        3.13909963      11.47539119       9.39580789
H        3.94334095       0.23184625       9.88395327
O        3.20373582       2.98381724       0.18167538
H        3.08806860       2.61081869       1.05558900
H        3.42819036       2.23521078      12.05864191
O        3.17351352       3.21170627       3.16537618
H        3.67468889       3.69416285       2.50788798
H        3.81410164       2.99201929       3.84184963
O        3.15856118       3.11294722       6.33608288
H        2.80870207       2.24970339       6.11553688
H        2.38741041       3.63506274       6.55733777
O        3.14195307       3.10514631       9.32543265
H        3.68991581       3.15943253       8.54247564
H        3.33423299       3.90847081       9.80909578
O        3.05571021       6.20244045       0.04723552
H        2.11543022       6.33479104      12.35608490
H        3.35812769       5.85104644      11.63943342
O        3.24540119       6.22763532       3.27329539
H        2.43625793       5.99292881       3.72764315
H        3.50878205       5.42544070       2.82235620
O        3.34064242       6.27647393       6.33863255
H        3.26986504       7.13727276       5.92602161
H        3.85946189       5.75762355       5.72393549
O        3.22360295       6.27751591       9.52710141
H        3.04277652       6.72688274       8.70150884
H        3.18561641       6.96764708      10.18930066
O        3.28804149       9.35929907       0.05597184
H        4.22871668       9.35438954      12.30857976
H        3.21895482       9.17014743       0.99174987
O        2.96577428       9.28671456       3.14666523
H        3.74247373       9.16089844       2.60155963
H        2.43747116       8.50281118       2.99625528
O        3.06743557       9.30854750       6.32396465
H        2.93692546       8.70666980       7.05672804
H        4.01728285       9.41009670       6.26305701
O        3.05834681       9.37898170       9.44583030
H        3.63353123       9.77080490      10.10299793
H        2.65900380      10.12615656       9.00031181
O        6.26618838       0.09497167       0.13157459
H        6.16213578       0.90792074       0.62606292
H        7.09777764      12.16244630       0.43740522
O        6.46406383       0.14754298       3.34870218
H        6.24909930       0.77426688       2.65787713
H        5.92364774      11.81133644       3.15460967
O        6.21904479      12.39299597       6.36275380
H        5.29566385       0.21315728       6.32808061
H        6.22081399      11.54027785       6.79761068
O        6.26176296       0.09293155       9.52824258
H        5.92744245       0.14179136       8.63265654
H        6.78896872       0.88520308       9.63115877
O        6.30568606       3.29136089       0.09726100
H        5.40611184       3.53395405      12.30747070
H        6.43382257       2.44043006      12.10769297
O        6.27179852       3.17059798       3.18867233
H        7.11120952       2.97667707       2.77152046
H        5.63771247       3.15245493       2.47184771
O        6.32545094       3.02459377       6.27614474
H        7.14382546       2.86349381       6.74576351
H        5.79233083       3.53034567       6.88952049
O        6.22387752       3.19474903       9.44798013
H        5.54462372       3.44547641      10.07406471
H        6.12271374       2.24791525       9.35049413
O        6.23475151       6.14118276       0.09377371
H        6.49350460       5.29872308      12.14985581
H        5.83259947       6.61355834      11.79445766
O        6.27077841       6.34017898       3.14294148
H        6.36543307       6.18813125       4.08323602
H        6.71971036       5.60037404       2.73381976
O        6.21481656       6.21481656       6.21481656
H        5.98373879       6.91151346       6.82918480
H        6.79439123       5.63826024       6.71272001
O        6.19746760       6.31520038       9.60912153
H        5.81882714       6.73367289       8.83598248
H        7.12749613       6.53852578       9.57164427
O        6.19993126       9.34311351       0.13803669
H        6.95986911       9.89941874       0.30906531
H        6.24366018       9.15891161      11.62937920
O        6.28086319       9.31669061       3.13002180
H        5.59026536       9.95699853       3.30122996
H        6.79367596       9.70112162       2.41905928
O        6.31725212       9.33953604       6.40121779
H        6.53819434      10.23992275       6.63937769
H        5.71097732       9.05255380       7.08408227
O        6.31358744       9.39678646       9.28575814
H        5.82182237       8.66388518       8.91527917
H        5.95703551      10.17027507       8.84893102
O        9.29265845       0.12151182       0.14393155
H        8.82346874       0.61099178       0.81958103
H       10.20791182       0.14390892       0.42329057
O        9.33272665      12.33757678       3.27280440
H        8.70165643       0.42225954       3.77625390
H        9.30552807      11.46762823       3.67115298
O        9.36631514       0.02577666       6.39295829
H       10.31907697      12.36465739       6.37744264
H        9.04023411      11.62088194       6.05611072
O        9.39473603       0.19316101       9.42418098
H        9.42472115       0.47443775      10.33862951
H       10.31319305       0.09581311       9.17280095
O        9.29908954       2.94980464       0.21859983
H        8.45447423       3.23011994       0.57113373
H        9.40837704       2.05495293       0.54035827
O        9.29256796       3.08179907       3.19133471
H       10.10352948       2.69637347       2.85964153
H        9.38559934       3.05404064       4.14359858
O        9.40544782       3.06027754       6.34446964
H        9.08418163       3.64832354       5.66093341
H       10.12981697       3.53677911       6.75001548
O        9.37897855       3.16928970       9.36518929
H       10.32877002       3.18515534       9.48298696
H        9.02580914       3.26877940      10.24927356
O        9.50878525       6.17859494       0.10298599
H        9.47549925       5.45728812       0.73134923
H        8.87256550       5.93932048      11.85867251
O        9.25916328       6.25727180       3.12001870
H        8.68845341       6.97179964       3.40281200
H        9.60447239       6.54593266       2.27522975
O        9.40753889       6.11219116       6.29687940
H        9.23973216       5.18100583       6.15208083
H       10.29040102       6.25296621       5.95487255
O        9.38329867       6.20153273       9.36230670
H        8.78309943       6.93965690       9.25664008
H        9.24572947       5.66654550       8.58058091
O        9.27338835       9.24721186       0.08312795
H        9.08970339       9.86383804      11.80405533
H        9.82290143       9.73939018       0.69306870
O        9.46381573       9.45176833       3.38838579
H       10.21369126       8.97346224       3.74213969
H        9.55466968       9.37219155       2.43883593
O        9.36587819       9.31461455       6.36696130
H       10.27688109       9.35912741       6.07657509
H        9.24714513       8.40684010       6.64638902
O        9.28185688       9.36411522       9.40050533
H        9.47136731       8.44639438       9.59571314
H        8.45741354       9.34084759       8.91472387
192
Lattice="12.429633119082435 0.0 0.0 0.0 12.429633119082435 0.0 0.0 0.0 12.429633119082435" Properties=species:S:1:pos:R:3 pbc="T T T"
O        0.07642683       0.00359685      12.41773357
H        0.17213354       0.54704487       0.78337522
H        0.57194594       0.47279907      11.74193828
O       12.27545405      12.39424882       3.23502649
H       11.78865169       0.68272055       3.62436263
H        0.74499997       0.08473702       3.52070061
O        0.08519810      12.34694632       6.33186655
H        0.21454830      11.39862458       6.42234515
H        0.95960115       0.30550623       6.38301755
O        0.14385145       0.13609252       9.48345891
H        0.53688511       0.28916933      10.32827130
H        0.61831630       0.73442133       8.90526042
O        0.13991366       3.11107346       0.14547749
H        0.25619217       2.27543662       0.59394981
H        0.07000746       3.76146438       0.83791856
O        0.07627318       3.22623184       3.21129831
H       12.13596622       3.56942043       4.04018044
H       12.37138200       2.27172090       3.25327779
O        0.01795702       3.06534436       6.25852948
H       11.72697272       3.63147318       6.54408998
H       12.08691440       2.17671436       6.28492833
O        0.01673927       3.10304497       9.24359552
H       11.76975270       3.06785118       8.57180453
H       12.07254292       2.62513154      10.00274956
O       12.24297236       6.18815544       0.19954722
H        0.04314234       5.48792307       0.78151155
H        0.38301364       6.89853160       0.44924055
O        0.09130931       6.18120995       3.29746466
H        0.79739934       5.85432309       3.83926726
H       12.04055666       6.78684257       3.85905035
O       12.38665082       6.27865799       6.27657571
H       11.55515019       6.10607455       6.72592403
H       12.13256903       6.54517840       5.39264844
O        0.04093905       6.10228573       9.40319668
H       12.24332705       6.60543494      10.18458363
H        0.57912005       5.37143749       9.72036079
O        0.05746191       9.40757763       0.18009308
H        0.85100844       9.86577879      12.32136449
H       11.90166879      10.09816391       0.49698809
O       12.39657635       9.42838796       3.28471576
H       12.39654598       8.47369402       3.47909539
H        0.48599404       9.51495194       2.46859666
O       12.32624939       9.37126244       6.40066958
H        0.81500115       9.43033302       6.19091524
H       12.18499970      10.07351827       7.03029435
O        0.05493490       9.23410817       9.40906382
H       12.00118223       9.32747390       8.58439653
H       12.15449630       9.94872907       9.94600576
O        3.17598695      12.21924225       0.06387026
H        2.22572343      12.07222112      12.40933144
H        3.51232570      12.11806560      11.60785138
O        3.23940783       0.13355705       3.16267207
H        3.33973474       0.90802985       2.62137635
H        4.14159821      12.34557438       3.45314410
O        3.16752007       0.12664654       6.44377370
H        2.69881083       0.26350698       5.62078134
H        3.85904270      11.89976640       6.23888625
O        3.18773705      12.42952608       9.33815981
H        3.13714640      11.46489742       9.39561558
H        3.94779669       0.23039517       9.88785200
O        3.20328150       2.98262983       0.18182018
H        3.08757211       2.60554584       1.05143223
H        3.42923236       2.23057932      12.07045396
O        3.17563871       3.21234072       3.16336302
H        3.67694432       3.69174720       2.50018612
H        3.83403173       2.98421387       3.84425321
O        3.16046975       3.11468195       6.33876464
H        2.80877835       2.25173684       6.11964789
H        2.37704948       3.63823731       6.56019771
O        3.13981695       3.10521596       9.32688116
H        3.69849874       3.16714399       8.53684058
H        3.32473485       3.90590393       9.81214591
O        3.05347103       6.20277139       0.04485836
H        2.11330683       6.33903271      12.36205843
H        3.34992537       5.86136570      11.64461718
O        3.24383191       6.22899969       3.27006136
H        2.43186377       5.99088904       3.73134597
H        3.50644280       5.43148305       2.82584861
O        3.34248347       6.27271586       6.34309375
H        3.28131057       7.14118049       5.92654206
H        3.86213755       5.75290308       5.71876083
O        3.22686025       6.27622350       9.52672434
H        3.04768984       6.72821943       8.68997676
H        3.18339634       6.97667234      10.19018820
O        3.28719476       9.36054366       0.05290117
H        4.23827503       9.36429138      12.30750167
H        3.22583775       9.17381543       0.98448097
O        2.96692839       9.28318748       3.14919044
H        3.73064046       9.16491339       2.59412929
H        2.43485380       8.49033562       2.98594046
O        3.06915399       9.30680603       6.32718727
H        2.93651686       8.70606021       7.04617851
H        4.02467287       9.41503677       6.25758456
O        3.06120866       9.37874444       9.44444691
H        3.62283179       9.76342389      10.11049009
H        2.65594393      10.12641218       8.98265734
O        6.26309460       0.09504949       0.13050876
H        6.15327849       0.89793039       0.61562651
H        7.09212291      12.16002101       0.44260857
O        6.46310077       0.14840003       3.34728102
H        6.24805387       0.77129378       2.66805194
H        5.92126508      11.81993694       3.16274339
O        6.21905307      12.39426000       6.35999153
H        5.28187179       0.20966839       6.34034308
H        6.19647805      11.54251694       6.78566185
O        6.26144649       0.09115518       9.53318013
H        5.92900715       0.15018843       8.61370972
H        6.78390436       0.88700268       9.62542369
O        6.30762345       3.28927890       0.09813310
H        5.40597440       3.52234995      12.30431933
H        6.42986105       2.44384080      12.12401448
O        6.27288984       3.17345859       3.19068449
H        7.09999618       2.97415371       2.76683340
H        5.63465858       3.14691724       2.47644323
O        6.32357458       3.02450701       6.27803793
H        7.14186806       2.86745974       6.73276755
H        5.79599491       3.52082635       6.90515359
O        6.22462432       3.19480035       9.44544542
H        5.55000038       3.44641575      10.07602141
H        6.12605064       2.24010864       9.35647967
O        6.23418701       6.13927923       0.09432242
H        6.49574512       5.30240357      12.15793519
H        5.82663116       6.61045777      11.78597717
O        6.27253560       6.33789944       3.14292056
H        6.37700057       6.18378187       4.07333337
H        6.72914407       5.59369610       2.73774748
O        6.21695288       6.21269213       6.21549593
H        5.97534275       6.91051538       6.81987314
H        6.79642986       5.63467908       6.71969914
O        6.19946536       6.31436018       9.60873641
H        5.82250311       6.73041766       8.83344112
H        7.14388820       6.54438232       9.58413942
O        6.19615200       9.34465081       0.13664308
H        6.96121724       9.89368743       0.30801841
H        6.24615733       9.16362832      11.62786163
O        6.28390142       9.31392413       3.12841275
H        5.59535891       9.95729007       3.30376733
H        6.81300238       9.70516116       2.42298172
O        6.31609230       9.33994238       6.39946398
H        6.53253864      10.24861476       6.63189083
H        5.71480249       9.06722472       7.09597033
O        6.31328906       9.39672116       9.28445503
H        5.81372914       8.66170770       8.92000483
H        5.94518399      10.16348103       8.84683349
O        9.29469784       0.12027765       0.14452155
H        8.82031916       0.59705160       0.83192974
H       10.21054628       0.13933016       0.42214787
O        9.33238400      12.33719131       3.27165754
H        8.70455368       0.41370734       3.77431864
H        9.30651669      11.45821282       3.67480238
O        9.36331074       0.02797922       6.39286523
H       10.32597685      12.36030931       6.38096740
H        9.04491343      11.61322176       6.06568607
O        9.39592404       0.18968645       9.42209168
H        9.42138050       0.47017239      10.34549929
H       10.32266539       0.10523617       9.17642201
O        9.30038240       2.94877155       0.21864114
H        8.45137535       3.23726903       0.56882413
H        9.40215419       2.05995823       0.53025035
O        9.29118260       3.08633966       3.19237966
H       10.11396823       2.70636691       2.86314686
H        9.38668997       3.06284046       4.15327944
O        9.40115456       3.06159468       6.34473575
H        9.07480308       3.66391148       5.66024945
H       10.12522969       3.53302859       6.76960475
O        9.38247024       3.17215309       9.35857863
H       10.33445825       3.19149985       9.49285598
H        9.01628436       3.27371404      10.26365659
O        9.50706539       6.17765640       0.10157809
H        9.47197954       5.44970582       0.73055585
H        8.86178717       5.94654353      11.87367130
O        9.25836881       6.26090901       3.12081615
H        8.68996323       6.96296529       3.40733539
H        9.62180754       6.54200283       2.26555638
O        9.40824031       6.11302693       6.29634548
H        9.24300157       5.17926533       6.16262886
H       10.28292956       6.25073545       5.94879305
O        9.38479899       6.20025494       9.36148146
H        8.77484924       6.93255192       9.25113894
H        9.22976318       5.67570668       8.58923497
O        9.27344465       9.24235580       0.08332624
H        9.09158564       9.85777329      11.79925083
H        9.83329797       9.73546492       0.68445092
O        9.46471525       9.45267910       3.38563009
H       10.20639757       8.97512655       3.73124834
H        9.56169852       9.38801878       2.44753676
O        9.36689922       9.31322580       6.36291959
H       10.27813104       9.37109708       6.08410177
H        9.24656684       8.40822036       6.64321289
O        9.28235130       9.36606800       9.40104548
H        9.47480209       8.43887774       9.61146111
H        8.46663146       9.35915239       8.90913866
192
Lattice="12.429633119082435 0.0 0.0 0.0 12.429633119082435 0.0 0.0 0.0 12.429633119082435" Properties=species:S:1:pos:R:3 pbc="T T T"
O        0.07648046       0.00432113      12.41733066
H        0.16934937       0.55706465       0.78994079
H        0.57415508       0.47195844      11.73811994
O       12.27930251      12.39518159       3.23670244
H       11.78260426       0.67583720       3.61619564
H        0.74214354       0.07536613       3.53354281
O        0.08870389      12.34720607       6.33113114
H        0.20358461      11.39401907       6.43093897
H        0.96147363       0.31192423       6.38870359
O        0.14572116       0.13530547       9.48211478
H        0.53956381       0.28619206      10.31281020
H        0.62635394       0.74116847       8.91392882
O        0.13893662       3.10813577       0.14646659
H        0.24939968       2.27239036       0.59166337
H        0.06581206       3.76197520       0.82997548
O        0.07712267       3.22812129       3.20948710
H       12.14378649       3.58591735       4.05021102
H       12.38605099       2.26497554       3.26308695
O        0.01731540       3.06669426       6.26178586
H       11.72772232       3.63798455       6.54778734
H       12.08753205       2.17436472       6.29237860
O        0.01592733       3.10229252       9.24399289
H       11.77276998       3.06878302       8.57171207
H       12.07070328       2.62027605      10.01772106
O       12.24335241       6.18795872       0.19801097
H        0.03153478       5.50474081       0.77975003
H        0.37759383       6.89040016       0.44396236
O        0.09249688       6.17952191       3.29847622
H        0.79355859       5.86106281       3.83901945
H       12.02528313       6.77573925       3.85388681
O       12.38642491       6.28052196       6.27520850
H       11.55171441       6.10005739       6.72314590
H       12.13719240       6.54929996       5.39086957
O        0.03983786       6.10249467       9.40499668
H       12.23983241       6.61405793      10.18085646
H        0.58339657       5.36923633       9.72072697
O        0.05332514       9.40943369       0.18135558
H        0.85193950       9.86797393      12.32428671
H       11.89177964      10.09628100       0.50215103
O       12.39574192       9.42765599       3.28756705
H       12.40027667       8.45872943       3.48678484
H        0.48790545       9.51938305       2.45777221
O       12.32397977       9.37365928       6.39936224
H        0.80554211       9.42504440       6.20113111
H       12.18383539      10.08358078       7.01672405
O        0.05567142       9.23549120       9.41041359
H       11.99115471       9.33039543       8.58890010
H       12.14401041       9.94270325       9.94517876
O        3.17464955      12.22189948       0.06728177
H        2.21887952      12.06244144      12.40914940
H        3.51278523      12.13170104      11.61453245
O        3.23703676       0.13394027       3.16429606
H        3.33891547       0.91383369       2.64007516
H        4.14936444      12.33688725       3.46286657
O        3.16736032       0.12718917       6.44304653
H        2.69184537       0.26410054       5.62271637
H        3.86513506      11.88177363       6.24086717
O        3.18562209      12.42931736       9.33535956
H        3.13536616      11.45618834       9.39548481
H        3.95278972       0.22949320       9.89085591
O        3.20293621       2.98151915       0.18195818
H        3.08621369       2.59983484       1.04810173
H        3.42999218       2.22452046      12.08115061
O        3.17783266       3.21290280       3.16132830
H        3.67936019       3.68958527       2.49236064
H        3.85337217       2.97701979       3.84690111
O        3.16237297       3.11648504       6.34143402
H        2.80908723       2.25369599       6.12431520
H        2.36718039       3.64130327       6.56305492
O        3.13774811       3.10521761       9.32833593
H        3.70628722       3.17484759       8.53113034
H        3.31476929       3.90476357       9.81522837
O        3.05123546       6.20314560       0.04260153
H        2.11053876       6.34299210      12.36755275
H        3.34216565       5.87021423      11.64825791
O        3.24216645       6.23048774       3.26692382
H        2.42896945       5.98868903       3.73493593
H        3.50467465       5.43719011       2.82858941
O        3.34426483       6.26901772       6.34759337
H        3.29286710       7.14451477       5.92628013
H        3.86536830       5.74816489       5.71364486
O        3.23017173       6.27495458       9.52636040
H        3.05203128       6.72873541       8.67886366
H        3.18072567       6.98619568      10.19018991
O        3.28633634       9.36180057       0.04968818
H        4.24815568       9.37418321      12.30772860
H        3.23213318       9.17725882       0.97776018
O        2.96798687       9.27968760       3.15170177
H        3.72056490       9.16791266       2.58688937
H        2.43333972       8.47770325       2.97612821
O        3.07088013       9.30514011       6.33033016
H        2.93580022       8.70436870       7.03795238
H        4.03200920       9.41977192       6.25131845
O        3.06408065       9.37850799       9.44293600
H        3.61266111       9.75608800      10.11961657
H        2.65188234      10.12466474       8.96492145
O        6.25999082       0.09508977       0.12937119
H        6.14381290       0.88910139       0.60659442
H        7.08707810      12.15736761       0.44766319
O        6.46215946       0.14924688       3.34597191
H        6.24651079       0.76985542       2.67722187
H        5.91898120      11.82710140       3.17027427
O        6.21897056      12.39553973       6.35727461
H        5.26915076       0.20807607       6.35234105
H        6.17257359      11.54524770       6.77416669
O        6.26097043       0.08935054       9.53800306
H        5.93141598       0.15901912       8.59559291
H        6.78127448       0.88792476       9.62001279
O        6.30958230       3.28725065       0.09909837
H        5.40399569       3.51114140      12.30176947
H        6.42673257       2.44541728      12.13850014
O        6.27387065       3.17629704       3.19271887
H        7.09090851       2.97175834       2.76198133
H        5.63187856       3.14189769       2.48031100
O        6.32166763       3.02446091       6.27986576
H        7.14121303       2.87055715       6.72094134
H        5.79887443       3.51131735       6.92128121
O        6.22542486       3.19481722       9.44289153
H        5.55466807       3.44772711      10.07785294
H        6.12856352       2.23332870       9.36185230
O        6.23359011       6.13743493       0.09487656
H        6.49858031       5.30527316      12.16542974
H        5.82103005       6.60703423      11.77788577
O        6.27429509       6.33560774       3.14282454
H        6.38848986       6.17931065       4.06540673
H        6.73863193       5.58716492       2.74142894
O        6.21912697       6.21051849       6.21615342
H        5.96671461       6.90988205       6.81020672
H        6.79842927       5.63094841       6.72645928
O        6.20156025       6.31356358       9.60836466
H        5.82540964       6.72640952       8.83065162
H        7.15909079       6.54939648       9.59707333
O        6.19228474       9.34618254       0.13522900
H        6.96330156       9.88779605       0.30660807
H        6.24936040       9.16825248      11.62555398
O        6.28691747       9.31121836       3.12681575
H        5.60031972       9.95723330       3.30647702
H        6.83206867       9.70861104       2.42723091
O        6.31483640       9.34033222       6.39769651
H        6.52838882      10.25562998       6.62372482
H        5.71903355       9.08192823       7.10808227
O        6.31298645       9.39660461       9.28318761
H        5.80555688       8.65926818       8.92575478
H        5.93345857      10.15811517       8.84525144
O        9.29668596       0.11903436       0.14507548
H        8.81731122       0.58194356       0.84537688
H       10.21416728       0.13427550       0.42131213
O        9.33213503      12.33678937       3.27042117
H        8.70621120       0.40582425       3.77333801
H        9.30779040      11.44852868       3.67786453
O        9.36037080       0.03020192       6.39274727
H       10.33235955      12.35600051       6.38445462
H        9.04948181      11.60488203       6.07543212
O        9.39711743       0.18620641       9.42007949
H        9.41809164       0.46575588      10.35187847
H       10.33209769       0.11458113       9.18001336
O        9.30161795       2.94788444       0.21863404
H        8.44835208       3.24473600       0.56654236
H        9.39675149       2.06401548       0.51980874
O        9.28977181       3.09085314       3.19347029
H       10.12440234       2.71674964       2.86649469
H        9.38784790       3.07076808       4.16166532
O        9.39683395       3.06298248       6.34491356
H        9.06479184       3.67854278       5.66024394
H       10.11963922       3.52895403       6.79014691
O        9.38592006       3.17506789       9.35204340
H       10.33951152       3.19838228       9.50369258
H        9.00775533       3.27852122      10.27636169
O        9.50538708       6.17672092       0.10027991
H        9.46858470       5.44155396       0.72903406
H        8.84989593       5.95361162      11.88756510
O        9.25775215       6.26445149       3.12155636
H        8.68952400       6.95586368       3.41198037
H        9.63846643       6.53851984       2.25652948
O        9.40886795       6.11387493       6.29591077
H        9.24570408       5.17763173       6.17305110
H       10.27570853       6.24934739       5.94094364
O        9.38622737       6.19911083       9.36078552
H        8.76714482       6.92544425       9.24535176
H        9.21395981       5.68300582       8.59615706
O        9.27346164       9.23751498       0.08359026
H        9.09385554       9.85199555      11.79332745
H        9.84386355       9.73196029       0.67517739
O        9.46545860       9.45365678       3.38293693
H       10.20086845       8.97648048       3.72090673
H        9.56867561       9.40328837       2.45458446
O        9.36785435       9.31187843       6.35886403
H       10.28054599       9.38298732       6.09161138
H        9.24593221       8.40900376       6.64010422
O        9.28290311       9.36791416       9.40167543
H        9.47917601       8.43323775       9.62746006
H        8.47496370       9.37787909       8.90289405
192
Lattice="12.429633119082435 0.0 0.0 0.0 12.429633119082435 0.0 0.0 0.0 12.429633119082435" Properties=species:S:1:pos:R:3 pbc="T T T"
O        0.07655562       0.00509494      12.41703546
H        0.16654192       0.56527383       0.79620368
H        0.57587297       0.47183348      11.73559750
O       12.28315467      12.39609269       3.23818161
H       11.77453459       0.66914345       3.60961436
H        0.74132765       0.06586260       3.54718499
O        0.09215639      12.34753727       6.33040473
H        0.19315944      11.39071423       6.43837144
H        0.96379032       0.31767535       6.39514256
O        0.14746258       0.13446886       9.48058869
H        0.54367440       0.28302688      10.29911652
H        0.63463785       0.74834858       8.92187248
O        0.13794371       3.10513802       0.14730170
H        0.24278831       2.27008729       0.59015511
H        0.06134779       3.76221503       0.82370063
O        0.07787185       3.22997828       3.20772762
H       12.15273347       3.60124039       4.05874527
H       12.40134847       2.25969203       3.27308146
O        0.01668059       3.06803178       6.26501602
H       11.72968924       3.64484661       6.55110812
H       12.08773730       2.17168615       6.29982881
O        0.01509619       3.10145245       9.24458780
H       11.77562545       3.06934968       8.57056364
H       12.07007666       2.61668145      10.03115847
O       12.24362043       6.18783073       0.19619792
H        0.02086339       5.51854323       0.78138597
H        0.37348114       6.88615731       0.43979317
O        0.09358508       6.17789226       3.29936487
H        0.79119375       5.86624136       3.84036056
H       12.00862060       6.76477660       3.84798993
O       12.38615458       6.28233266       6.27382311
H       11.54989496       6.09434241       6.72240788
H       12.14210221       6.55360442       5.38973444
O        0.03877525       6.10266759       9.40673933
H       12.23607765       6.62282102      10.17780226
H        0.58716886       5.36724320       9.72104524
O        0.04920575       9.41127121       0.18265161
H        0.85293934       9.86988984      12.32733129
H       11.88255080      10.09479160       0.50697348
O       12.39494294       9.42671355       3.29037756
H       12.40480965       8.44718512       3.49310932
H        0.48866793       9.52345813       2.44850656
O       12.32148515       9.37605665       6.39806366
H        0.80039019       9.41924586       6.20991622
H       12.18183471      10.09365226       7.00466108
O        0.05645756       9.23686121       9.41167493
H       11.98071161       9.33210518       8.59428313
H       12.13267484       9.93769451       9.94555183
O        3.17318651      12.22468864       0.07076229
H        2.21339477      12.05220182      12.40952626
H        3.51377178      12.14474273      11.62019305
O        3.23477072       0.13415904       3.16611867
H        3.33830714       0.92153221       2.65762592
H        4.15456456      12.32924807       3.47173291
O        3.16732347       0.12764525       6.44232091
H        2.68584367       0.26378067       5.62270217
H        3.86739945      11.86491026       6.24293692
O        3.18356312      12.42900525       9.33266194
H        3.13383815      11.45017112       9.39541401
H        3.95756281       0.22887433       9.89239682
O        3.20270042       2.98048857       0.18209148
H        3.08391269       2.59375485       1.04586633
H        3.43054574       2.21689389      12.09043114
O        3.18017860       3.21337470       3.15933468
H        3.68178601       3.68753733       2.48463373
H        3.87094711       2.97089075       3.84859350
O        3.16420968       3.11839453       6.34410750
H        2.80966091       2.25553418       6.12951782
H        2.35875381       3.64369561       6.56566983
O        3.13579033       3.10514344       9.32972164
H        3.71250562       3.18246639       8.52643094
H        3.30440990       3.90523652       9.81845361
O        3.04897396       6.20359458       0.04054421
H        2.10719650       6.34665898      12.37256033
H        3.33526910       5.87710465      11.64908992
O        3.24035654       6.23213341       3.26392662
H        2.42809636       5.98648844       3.73812797
H        3.50373695       5.44181435       2.83017992
O        3.34601452       6.26540290       6.35206662
H        3.30454176       7.14652345       5.92565006
H        3.86870267       5.74379382       5.70918606
O        3.23352118       6.27378414       9.52599061
H        3.05600719       6.72793046       8.66913520
H        3.17765317       6.99551729      10.18864332
O        3.28553849       9.36307657       0.04628914
H        4.25733588       9.38406971      12.30937146
H        3.23774343       9.18036076       0.97214583
O        2.96888314       9.27615138       3.15420344
H        3.71272352       9.16993057       2.57952833
H        2.43351718       8.46592355       2.96709251
O        3.07266819       9.30361014       6.33332862
H        2.93476242       8.70085084       7.03289685
H        4.03849696       9.42406531       6.24443419
O        3.06691828       9.37829935       9.44124175
H        3.60311809       9.74912357      10.13057742
H        2.64740586      10.12017919       8.94779164
O        6.25689962       0.09500529       0.12811481
H        6.13355248       0.88270492       0.59975201
H        7.08245552      12.15457837       0.45252549
O        6.46128752       0.15007082       3.34483694
H        6.24418168       0.77075955       2.68452912
H        5.91635174      11.83220325       3.17706170
O        6.21870798      12.39687738       6.35459704
H        5.25857896       0.20848284       6.36390858
H        6.14937686      11.54772003       6.76341732
O        6.26029449       0.08753698       9.54257980
H        5.93525639       0.16795188       8.58021961
H        6.78116352       0.88796048       9.61507777
O        6.31152791       3.28535277       0.10018213
H        5.40042193       3.50040645      12.29993359
H        6.42473638       2.44388720      12.15064585
O        6.27470229       3.17911957       3.19477780
H        7.08455130       2.96935591       2.75675541
H        5.62938193       3.13743607       2.48362422
O        6.31967756       3.02447277       6.28161980
H        7.14260062       2.87261747       6.71061074
H        5.80107828       3.50170367       6.93772747
O        6.22627186       3.19475934       9.44031462
H        5.55866289       3.44940047      10.07952977
H        6.13031149       2.22827176       9.36669852
O        6.23292457       6.13572274       0.09541112
H        6.50218640       5.30662708      12.17202984
H        5.81618779       6.60282585      11.77087321
O        6.27607491       6.33327379       3.14258978
H        6.39992360       6.17469554       4.06037854
H        6.74785036       5.58127655       2.74495896
O        6.22136267       6.20826163       6.21678530
H        5.95781174       6.90979610       6.80043554
H        6.80004232       5.62744314       6.73280862
O        6.20383603       6.31282623       9.60801354
H        5.82771121       6.72167750       8.82762264
H        7.17156626       6.55328477       9.61034758
O        6.18833739       9.34771207       0.13378370
H        6.96607270       9.88172779       0.30493979
H        6.25318079       9.17274110      11.62250536
O        6.28993629       9.30859387       3.12519794
H        5.60529707       9.95676308       3.30925454
H        6.85034739       9.71120747       2.43244870
O        6.31347222       9.34073580       6.39594270
H        6.52577305      10.26057724       6.61467582
H        5.72385958       9.09659870       7.12021042
O        6.31266206       9.39642153       9.28193964
H        5.79752524       8.65677351       8.93273607
H        5.92189086      10.15421184       8.84424003
O        9.29860946       0.11780031       0.14561969
H        8.81484245       0.56542387       0.85952963
H       10.21863359       0.12878050       0.42077978
O        9.33200506      12.33628144       3.26910098
H        8.70618300       0.39902435       3.77368546
H        9.30940233      11.43957273       3.67986461
O        9.35755790       0.03240989       6.39259340
H       10.33719344      12.35194607       6.38793327
H        9.05397190      11.59620923       6.08547636
O        9.39835598       0.18273340       9.41818695
H        9.41482436       0.46094061      10.35695836
H       10.34089775       0.12389126       9.18372551
O        9.30275537       2.94723168       0.21856607
H        8.44598660       3.25223455       0.56407192
H        9.39220327       2.06593240       0.50942829
O        9.28838499       3.09531904       3.19464086
H       10.13415989       2.72784530       2.86995946
H        9.38901235       3.07781674       4.16792508
O        9.39248552       3.06449343       6.34497281
H        9.05466299       3.69157522       5.66177937
H       10.11252980       3.52435750       6.81125647
O        9.38930614       3.17804783       9.34571474
H       10.34351896       3.20581049       9.51538444
H        9.00101171       3.28296923      10.28539923
O        9.50378076       6.17576297       0.09914879
H        9.46538492       5.43332819       0.72643393
H        8.83634315       5.96043603      11.89982728
O        9.25739102       6.26786350       3.12215214
H        8.68667575       6.95127293       3.41678775
H        9.65369805       6.53529370       2.24948169
O        9.40938568       6.11472423       6.29558881
H        9.24785750       5.17616703       6.18340356
H       10.26934690       6.24892582       5.93106394
O        9.38757569       6.19815537       9.36025915
H        8.76021877       6.91841634       9.23949338
H        9.19829022       5.68755469       8.60045020
O        9.27343770       9.23271232       0.08390255
H        9.09657524       9.84622409      11.78658602
H        9.85453161       9.72877049       0.66520915
O        9.46598762       9.45473708       3.38036436
H       10.19795525       8.97697187       3.71164050
H        9.57569419       9.41802342       2.45854240
O        9.36873095       9.31059083       6.35479376
H       10.28422707       9.39465784       6.09907986
H        9.24533117       8.40902750       6.63708956
O        9.28356350       9.36959546       9.40243432
H        9.48396598       8.43062617       9.64324733
H        8.48214036       9.39673030       8.89583623
192
Lattice="12.429633119082435 0.0 0.0 0.0 12.429633119082435 0.0 0.0 0.0 12.429633119082435" Properties=species:S:1:pos:R:3 pbc="T T T"
O        0.07666188       0.00595432      12.41688619
H        0.16367672       0.57113329       0.80135411
H        0.57698146       0.47234875      11.73453023
O       12.28700702      12.39696002       3.23944315
H       11.76436621       0.66290183       3.60477210
H        0.74264307       0.05634452       3.56177966
O        0.09555581      12.34793179       6.32968618
H        0.18346369      11.38921490       6.44460097
H        0.96638330       0.32246838       6.40236489
O        0.14905354       0.13359187       9.47878293
H        0.54984465       0.27976553      10.28884162
H        0.64290737       0.75574525       8.92904956
O        0.13693573       3.10208253       0.14795255
H        0.23636867       2.26834731       0.58961088
H        0.05659721       3.76239856       0.81935055
O        0.07849701       3.23179383       3.20607420
H       12.16314517       3.61480866       4.06487363
H       12.41728063       2.25654081       3.28332637
O        0.01604235       3.06934062       6.26822294
H       11.73291234       3.65187794       6.55399451
H       12.08760606       2.16912254       6.30726922
O        0.01423897       3.10049516       9.24544625
H       11.77809811       3.06947343       8.56834088
H       12.07097879       2.61489698      10.04206449
O       12.24372363       6.18780382       0.19402633
H        0.01140231       5.52797662       0.78758223
H        0.37121171       6.88660253       0.43690969
O        0.09454387       6.17633257       3.30009848
H        0.79075076       5.86972883       3.84372357
H       11.99054195       6.75391275       3.84141916
O       12.38582814       6.28408288       6.27243805
H       11.54993812       6.08903760       6.72344160
H       12.14719646       6.55813055       5.38919674
O        0.03776166       6.10279041       9.40843229
H       12.23220230       6.63151063      10.17531812
H        0.59014169       5.36589149       9.72128754
O        0.04511628       9.41310483       0.18397838
H        0.85356645       9.87139988      12.33065315
H       11.87423137      10.09359230       0.51134670
O       12.39421207       9.42550955       3.29310395
H       12.41018442       8.44008798       3.49777546
H        0.48771252       9.52694029       2.44178456
O       12.31872130       9.37844786       6.39677783
H        0.80029206       9.41291027       6.21711895
H       12.17892398      10.10376210       6.99428836
O        0.05728026       9.23822095       9.41282778
H       11.97003982       9.33250368       8.60062212
H       12.12050527       9.93377879       9.94732565
O        3.17155013      12.22760208       0.07432449
H        2.20994562      12.04165003      12.41051662
H        3.51537401      12.15717396      11.62455585
O        3.23266490       0.13417611       3.16817061
H        3.33799274       0.93142316       2.67391430
H        4.15621458      12.32297271       3.47937753
O        3.16745261       0.12796791       6.44157722
H        2.68102170       0.26242946       5.62092670
H        3.86494489      11.85002167       6.24521085
O        3.18159779      12.42856645       9.33009792
H        3.13261044      11.44738823       9.39540463
H        3.96148099       0.22832313       9.89199702
O        3.20257744       2.97952487       0.18222157
H        3.08061197       2.58743045       1.04483551
H        3.43090395       2.20776818      12.09816346
O        3.18274431       3.21374358       3.15742688
H        3.68407216       3.68546144       2.47722622
H        3.88582548       2.96619538       3.84841765
O        3.16593094       3.12043974       6.34679776
H        2.81053070       2.25720203       6.13523607
H        2.35252313       3.64498850       6.56786144
O        3.13398004       3.10499579       9.33098416
H        3.71653644       3.18992844       8.52359613
H        3.29369193       3.90734368       9.82182861
O        3.04666273       6.20413949       0.03874013
H        2.10341499       6.35000538      12.37707470
H        3.32949407       5.88173019      11.64625283
O        3.23837109       6.23396183       3.26109946
H        2.42955105       5.98438938       3.74074738
H        3.50382758       5.44481290       2.83033344
O        3.34775914       6.26188975       6.35645567
H        3.31631122       7.14660274       5.92501092
H        3.87174493       5.74010689       5.70592973
O        3.23689525       6.27277300       9.52560107
H        3.05977406       6.72541797       8.66153057
H        3.17423166       7.00404844      10.18503206
O        3.28486248       9.36437752       0.04267408
H        4.26496197       9.39393941      12.31248764
H        3.24257668       9.18303840       0.96802985
O        2.96957589       9.27252654       3.15669003
H        3.70734973       9.17104214       2.57190864
H        2.43581673       8.45578301       2.95908329
O        3.07455870       9.30225614       6.33614250
H        2.93346445       8.69507786       7.03146215
H        4.04347922       9.42768642       6.23711455
O        3.06969605       9.37813704       9.43932858
H        3.59411713       9.74274681      10.14335993
H        2.64299004      10.11248899       8.93185709
O        6.25384284       0.09473056       0.12670626
H        6.12235281       0.87964117       0.59567273
H        7.07803246      12.15177568       0.45714693
O        6.46051913       0.15086259       3.34391717
H        6.24085179       0.77453529       2.68941366
H        5.91306586      11.83484593       3.18300669
O        6.21819466      12.39830388       6.35195819
H        5.25098502       0.21101900       6.37487067
H        6.12710735      11.54931662       6.75362703
O        6.25939573       0.08573927       9.54681107
H        5.94090522       0.17666694       8.56900296
H        6.78358785       0.88701177       9.61075534
O        6.31342150       3.28363456       0.10139259
H        5.39565931       3.49016471      12.29895312
H        6.42407580       2.43846876      12.16018671
O        6.27536543       3.18192725       3.19685397
H        7.08119883       2.96688867       2.75109668
H        5.62720436       3.13357493       2.48655906
O        6.31756880       3.02455789       6.28330650
H        7.14643643       2.87354782       6.70192305
H        5.80278225       3.49182620       6.95425763
O        6.22715620       3.19459975       9.43771587
H        5.56207011       3.45141233      10.08097535
H        6.13133570       2.22542204       9.37107509
O        6.23216410       6.13419393       0.09590484
H        6.50667299       5.30598447      12.17753277
H        5.81240353       6.59748883      11.76546392
O        6.27789218       6.33086974       3.14217988
H        6.41129628       6.16996249       4.05877159
H        6.75651755       5.57644544       2.74840300
O        6.22367895       6.20589495       6.21738848
H        5.94861432       6.91037562       6.79075294
H        6.80097587       5.62448627       6.73859910
O        6.20635074       6.31215892       9.60769120
H        5.82958490       6.71624156       8.82438811
H        7.18018551       6.55585691       9.62382059
O        6.18432238       9.34924403       0.13229103
H        6.96942495       9.87543021       0.30311529
H        6.25751159       9.17706715      11.61885947
O        6.29297896       9.30606572       3.12353470
H        5.61041402       9.95583766       3.31200918
H        6.86739689       9.71275044       2.43913060
O        6.31198525       9.34117105       6.39422610
H        6.52475892      10.26326725       6.60459864
H        5.72946478       9.11117109       7.13214511
O        6.31229779       9.39616580       9.28069401
H        5.78981954       8.65440210       8.94111429
H        5.91055493      10.15168911       8.84390824
O        9.30046316       0.11659194       0.14618224
H        8.81328914       0.54728051       0.87400804
H       10.22369629       0.12287666       0.42051165
O        9.33200644      12.33560162       3.26770815
H        8.70424593       0.39352440       3.77555699
H        9.31139077      11.43216331       3.68041699
O        9.35491909       0.03456584       6.39239295
H       10.33968563      12.34834790       6.39142297
H        9.05842151      11.58759945       6.09595022
O        9.39967493       0.17927763       9.41644669
H        9.41155673       0.45553919      10.36011741
H       10.34853720       0.13318722       9.18767823
O        9.30376335       2.94688386       0.21842864
H        8.44476682       3.25948747       0.56124247
H        9.38848921       2.06478824       0.49939513
O        9.28706497       3.09972087       3.19591248
H       10.14266188       2.73991555       2.87375173
H        9.39013213       3.08398314       4.17150963
O        9.38811022       3.06616588       6.34489524
H        9.04483296       3.70253318       5.66549428
H       10.10347252       3.51909853       6.83257470
O        9.39261784       3.18110258       9.33968736
H       10.34616298       3.21378602       9.52778383
H        8.99657527       3.28689592      10.28938887
O        9.50226165       6.17475641       0.09821988
H        9.46244757       5.42544681       0.72248280
H        8.82082712       5.96702284      11.91020862
O        9.25733773       6.27112686       3.12254429
H        8.68124566       6.94959509       3.42167271
H        9.66686701       6.53222648       2.24542438
O        9.40977109       6.11556644       6.29538894
H        9.24949899       5.17494215       6.19373062
H       10.26422502       6.24953726       5.91897374
O        9.38883482       6.19741918       9.35991556
H        8.75425285       6.91160311       9.23375618
H        9.18278375       5.68880288       8.60167734
O        9.27337109       9.22797297       0.08424239
H        9.09980752       9.84014419      11.77936897
H        9.86524135       9.72579054       0.65451465
O        9.46626390       9.45594082       3.37795351
H       10.19820463       8.97623844       3.70380034
H        9.58283306       9.43229105       2.45841484
O        9.36952735       9.30937646       6.35070601
H       10.28908929       9.40595493       6.10654176
H        9.24486568       8.40821984       6.63417128
O        9.28436564       9.37107707       9.40334960
H        9.48871767       8.43180905       9.65841193
H        8.48810177       9.41541399       8.88794371
192
Lattice="12.429633119082435 0.0 0.0 0.0 12.429633119082435 0.0 0.0 0.0 12.429633119082435" Properties=species:S:1:pos:R:3 pbc="T T T"
O        0.07680333       0.00692246      12.41691199
H        0.16074370       0.57426481       0.80482325
H        0.57742128       0.47347959      11.73499504
O       12.29086577      12.39777916       3.24048060
H       11.75222404       0.65712277       3.60169939
H        0.74582781       0.04690832       3.57737099
O        0.09890276      12.34839187       6.32897338
H        0.17468416      11.38983021       6.44960666
H        0.96908771       0.32604336       6.41039724
O        0.15048823       0.13269209       9.47663264
H        0.55847147       0.27640575      10.28304592
H        0.65087162       0.76310042       8.93547776
O        0.13591288       3.09898016       0.14840007
H        0.23014871       2.26696557       0.59020495
H        0.05155310       3.76260783       0.81701884
O        0.07898518       3.23356351       3.20456369
H       12.17521518       3.62619736       4.06798998
H        0.00419122       2.25596065       3.29385994
O        0.01539585       3.07060081       6.27140765
H       11.73733914       3.65895833       6.55642252
H       12.08721136       2.16711183       6.31468834
O        0.01335112       3.09940389       9.24660681
H       11.78008530       3.06908505       8.56513906
H       12.07356914       2.61526044      10.04976716
O       12.24365196       6.18789372       0.19146643
H        0.00319630       5.53259086       0.79883407
H        0.37087947       6.89191535       0.43532740
O        0.09536201       6.17484798       3.30066485
H        0.79229490       5.87157666       3.84928232
H       11.97110939       6.74303583       3.83418679
O       12.38544200       6.28576514       6.27107285
H       11.55198372       6.08424270       6.72600916
H       12.15234697       6.56293296       5.38915188
O        0.03680229       6.10285776       9.41008466
H       12.22835934       6.63987634      10.17324286
H        0.59209015       5.36551191       9.72146150
O        0.04106740       9.41494527       0.18533344
H        0.85345207       9.87240529      12.33437671
H       11.86702364      10.09261513       0.51518680
O       12.39357131       9.42401949       3.29571381
H       12.41641235       8.43796146       3.50062833
H        0.48467139       9.52966262       2.43828300
O       12.31569186       9.38083511       6.39550321
H        0.80516574       9.40600152       6.22280065
H       12.17510606      10.11381514       6.98565249
O        0.05812264       9.23958509       9.41386810
H       11.95928384       9.33150757       8.60792146
H       12.10762374       9.93082265       9.95052496
O        3.16971241      12.23063260       0.07796897
H        2.20898121      12.03090876      12.41214895
H        3.51759504      12.16899784      11.62755809
O        3.23075182       0.13398365       3.17045901
H        3.33799521       0.94344450       2.68906321
H        4.15375592      12.31826648       3.48557402
O        3.16776498       0.12812976       6.44079310
H        2.67760770       0.25995060       5.61767969
H        3.85728925      11.83763762       6.24774826
O        3.17975470      12.42799598       9.32768992
H        3.13169373      11.44799959       9.39545856
H        3.96408186       0.22769319       9.88930880
O        3.20257316       2.97859810       0.18235019
H        3.07628188       2.58104198       1.04494721
H        3.43101172       2.19742337      12.10438221
O        3.18557905       3.21400160       3.15563187
H        3.68608405       3.68323161       2.47032968
H        3.89735742       2.96319793       3.84577254
O        3.16750276       3.12263916       6.34951284
H        2.81173121       2.25865370       6.14145263
H        2.34899535       3.64492379       6.56951837
O        3.13234393       3.10478734       9.33209371
H        3.71795998       3.19717399       8.52319886
H        3.28261204       3.91092990       9.82525436
O        3.04428972       6.20478644       0.03720489
H        2.09936783       6.35298728      12.38108496
H        3.32486755       5.88403609      11.63950061
O        3.23619990       6.23598330       3.25845340
H        2.43340350       5.98242727       3.74274558
H        3.50504609       5.44595480       2.82893044
O        3.34952150       6.25849076       6.36071402
H        3.32812302       7.14435062       5.92464346
H        3.87419151       5.73731322       5.70431976
O        3.24028418       6.27196384       9.52518333
H        3.06343282       6.72094414       8.65651325
H        3.17051231       7.01135802      10.17902830
O        3.28435483       9.36570725       0.03883176
H        4.27040858       9.40377064      12.31707041
H        3.24654568       9.18525491       0.96556658
O        2.97005237       9.26877494       3.15914550
H        3.70441047       9.17136113       2.56410378
H        2.44048275       8.44779992       2.95230544
O        3.07657310       9.30109005       6.33876358
H        2.93206361       8.68704305       7.03359691
H        4.04649794       9.43042711       6.22953707
O        3.07240889       9.37803005       9.43718497
H        3.58539166       9.73705298      10.15771684
H        2.63897470      10.10142071       8.91757209
O        6.25083636       0.09423736       0.12513330
H        6.11015963       0.88020812       0.59458894
H        7.07358434      12.14909787       0.46148803
O        6.45986876       0.15161983       3.34322428
H        6.23642365       0.78130039       2.69173781
H        5.90900466      11.83494164       3.18805803
O        6.21738030      12.39983338       6.34936405
H        5.24691044       0.21582952       6.38505854
H        6.10593764      11.54964792       6.74489317
O        6.25826711       0.08398612       9.55062940
H        5.94854288       0.18486988       8.56285899
H        6.78850144       0.88490576       9.60717242
O        6.31522549       3.28210461       0.10271785
H        5.39021333       3.48039008      12.29898149
H        6.42483558       2.42907031      12.16715864
O        6.27586313       3.18471494       3.19892972
H        7.08075693       2.96439421       2.74512591
H        5.62539568       3.13035742       2.48927540
O        6.31532991       3.02472718       6.28494691
H        7.15270406       2.87334211       6.69482154
H        5.80420172       3.48150885       6.97060692
O        6.22806766       3.19432702       9.43510087
H        5.56501305       3.45373195      10.08207708
H        6.13166056       2.22500719       9.37500959
O        6.23129606       6.13287076       0.09634048
H        6.51204965       5.30318190      12.18188029
H        5.80985886       6.59082142      11.76197620
O        6.27976306       6.32837131       3.14159278
H        6.42254904       6.16520229       4.06060749
H        6.76442023       5.57296553       2.75178345
O        6.22608723       6.20340299       6.21796041
H        5.93913813       6.91164665       6.78127254
H        6.80102042       5.62231751       6.74375110
O        6.20913500       6.31156683       9.60740572
H        5.83121268       6.71011426       8.82100173
H        7.18426408       6.55702598       9.63732723
O        6.18025614       9.35078414       0.13073077
H        6.97320449       9.86882289       0.30123295
H        6.26222744       9.18121650      11.61483562
O        6.29606063       9.30364157       3.12181145
H        5.61575647       9.95444544       3.31467076
H        6.88290585       9.71312756       2.44758991
O        6.31036016       9.34164291       6.39256520
H        6.52545193      10.26372552       6.59340480
H        5.73600830       9.12557588       7.14369308
O        6.31187653       9.39584043       9.27943415
H        5.78257422       8.65228344       8.95100345
H        5.89956113      10.15037044       8.84440806
O        9.30224995       0.11542241       0.14679012
H        8.81297391       0.52735620       0.88848387
H       10.22903335       0.11659151       0.42044020
O        9.33213514      12.33471348       3.26626051
H        8.70045144       0.38931018       3.77892584
H        9.31377944      11.42688200       3.67925307
O        9.35248402       0.03663336       6.39213644
H       10.33933140      12.34538611       6.39493782
H        9.06285503      11.57945421       6.10697118
O        9.40110193       0.17584641       9.41487943
H        9.40826931       0.44943600      10.36096775
H       10.35460576       0.14246637       9.19194534
O        9.30462415       2.94687997       0.21821952
H        8.44503441       3.26625003       0.55794857
H        9.38552281       2.06012996       0.48982953
O        9.28584448       3.10404714       3.19729236
H       10.14947474       2.75313986       2.87799600
H        9.39116467       3.08927396       4.17218644
O        9.38370981       3.06802130       6.34467460
H        9.03560085       3.71113913       5.67177484
H       10.09215878       3.51310566       6.85379831
O        9.39585326       3.18423812       9.33402241
H       10.34724789       3.22230458       9.54071369
H        8.99470704       3.29020289      10.28750751
O        9.50082523       6.17367637       0.09750165
H        9.45983360       5.41821407       0.71701499
H        8.80336794       5.97347999      11.91877726
O        9.25761249       6.27424520       3.12270703
H        8.67341158       6.95078957       3.42639098
H        9.67749650       6.52931080       2.24499574
O        9.41002038       6.11639719       6.29531379
H        9.25068347       5.17402691       6.20406057
H       10.26041523       6.25117747       5.90461535
O        9.38999176       6.19690368       9.35973457
H        8.74937162       6.90518234       9.22830066
H        9.16758004       5.68662229       8.59997405
O        9.27326046       9.22332171       0.08458813
H        9.10360191       9.83344552      11.77201591
H        9.87594349       9.72291981       0.64307539
O        9.46627824       9.45726972       3.37571772
H       10.20173661       8.97419528       3.69749971
H        9.59012627       9.44618113       2.45388097
O        9.37025196       9.30824346       6.34659705
H       10.29487695       9.41670975       6.11407759
H        9.24464805       8.40660905       6.63132526
O        9.28532284       9.37234988       9.40443422
H        9.49305899       8.43713625       9.67262157
H        8.49301290       9.43363999       8.87934388
