192
Lattice="12.429633119082435 0.0 0.0 0.0 12.429633119082435 0.0 0.0 0.0 12.429633119082435" Properties=species:S:1:pos:R:3:molecule_id:I:1:source_id:I:1 pbc="T T T"
O        0.07638047       0.00287602      12.41819874        0        0
H        0.17495305       0.53587347       0.77750732        0        1
H        0.56941205       0.47447549      11.74682281        0        2
O       12.27162331      12.39333159       3.23318613        1        3
H       11.79291365       0.68932362       3.63385687        1        4
H        0.74948161       0.09383355       3.50842425        1        5
O        0.08164048      12.34677416       6.33261168        2        6
H        0.22586312      11.40389180       6.41263992        2        7
H        0.95831649       0.29872493       6.37805113        2        8
O        0.14188292       0.13682734       9.48472814        3        9
H        0.53494714       0.29182775      10.34362699        3       10
H        0.61073113       0.72825689       8.89598008        3       11
O        0.14087366       3.11395663       0.14437275        4       12
H        0.26315661       2.27935394       0.59682945        4       13
H        0.07395512       3.76038052       0.84714577        4       14
O        0.07535749       3.22432257       3.21309247        5       15
H       12.12879885       3.55244652       4.02982149        5       16
H       12.35730181       2.27907571       3.24355921        5       17
O        0.01861954       3.06399212       6.25524226        6       18
H       11.72731880       3.62554390       6.54010330        6       19
H       12.08582242       2.17833902       6.27748501        6       20
O        0.01754234       3.10375111       9.24330634        7       21
H       11.76688546       3.06663710       8.57095233        7       22
H       12.07513284       2.63050829       9.98752228        7       23
O       12.24256192       6.18838377       0.20091573        8       24
H        0.05526252       5.46995914       0.78518643        8       25
H        0.38890188       6.90932622       0.45533437        8       26
O        0.09006548       6.18294044       3.29637668        9       27
H        0.80199213       5.84629773       3.84049429        9       28
H       12.05454332       6.79805905       3.86337889        9       29
O       12.38685030       6.27674683       6.27790908       10       30
H       11.55988278       6.11228873       6.73102065       10       31
H       12.12830077       6.54121890       5.39505093       10       32
O        0.04206452       6.10206195       9.40133541       11       33
H       12.24644612       6.59710986      10.18900360       11       34
H        0.57467253       5.37335430       9.71999778       11       35
O        0.06160318       9.40568704       0.17886700       12       36
H        0.85061335       9.86343639      12.31839614       12       37
H       11.91194528      10.10055978       0.49160590       12       38
O       12.39740451       9.42898771       3.28187566       13       39
H       12.39354690       8.49055708       3.47046228       13       40
H        0.48368075       9.51045593       2.47973334       13       41
O       12.32837383       9.36888133       6.40197713       14       42
H        0.82739469       9.43511469       6.17961085       14       43
H       12.18546725      10.06332485       7.04506169       14       44
O        0.05425770       9.23272056       9.40765982       15       45
H       12.01057541       9.32345173       8.58063370       15       46
H       12.16420343       9.95550282       9.94767614       15       47
O        3.17726181      12.21672386       0.06050571       16       48
H        2.23307320      12.08138367      12.40999687       16       49
H        3.51223574      12.10387516      11.60059429       16       50
O        3.24180675       0.13307053       3.16119457       17       51
H        3.34063570       0.90353267       2.60186215       17       52
H        4.13265197      12.35490127       3.44305412       17       53
O        3.16773227       0.12608388       6.44451796       18       54
H        2.70656038       0.26212768       5.61684387       18       55
H        3.85042133      11.91773222       6.23680924       18       56
O        3.18986429       0.00003983       9.34102552       19       57
H        3.13909963      11.47539119       9.39580789       19       58
H        3.94334095       0.23184625       9.88395327       19       59
O        3.20373582       2.98381724       0.18167538       20       60
H        3.08806860       2.61081869       1.05558900       20       61
H        3.42819036       2.23521078      12.05864191       20       62
O        3.17351352       3.21170627       3.16537618       21       63
H        3.67468889       3.69416285       2.50788798       21       64
H        3.81410164       2.99201929       3.84184963       21       65
O        3.15856118       3.11294722       6.33608288       22       66
H        2.80870207       2.24970339       6.11553688       22       67
H        2.38741041       3.63506274       6.55733777       22       68
O        3.14195307       3.10514631       9.32543265       23       69
H        3.68991581       3.15943253       8.54247564       23       70
H        3.33423299       3.90847081       9.80909578       23       71
O        3.05571021       6.20244045       0.04723552       24       72
H        2.11543022       6.33479104      12.35608490       24       73
H        3.35812769       5.85104644      11.63943342       24       74
O        3.24540119       6.22763532       3.27329539       25       75
H        2.43625793       5.99292881       3.72764315       25       76
H        3.50878205       5.42544070       2.82235620       25       77
O        3.34064242       6.27647393       6.33863255       26       78
H        3.26986504       7.13727276       5.92602161       26       79
H        3.85946189       5.75762355       5.72393549       26       80
O        3.22360295       6.27751591       9.52710141       27       81
H        3.04277652       6.72688274       8.70150884       27       82
H        3.18561641       6.96764708      10.18930066       27       83
O        3.28804149       9.35929907       0.05597184       28       84
H        4.22871668       9.35438954      12.30857976       28       85
H        3.21895482       9.17014743       0.99174987       28       86
O        2.96577428       9.28671456       3.14666523       29       87
H        3.74247373       9.16089844       2.60155963       29       88
H        2.43747116       8.50281118       2.99625528       29       89
O        3.06743557       9.30854750       6.32396465       30       90
H        2.93692546       8.70666980       7.05672804       30       91
H        4.01728285       9.41009670       6.26305701       30       92
O        3.05834681       9.37898170       9.44583030       31       93
H        3.63353123       9.77080490      10.10299793       31       94
H        2.65900380      10.12615656       9.00031181       31       95
O        6.26618838       0.09497167       0.13157459       32       96
H        6.16213578       0.90792074       0.62606292       32       97
H        7.09777764      12.16244630       0.43740522       32       98
O        6.46406383       0.14754298       3.34870218       33       99
H        6.24909930       0.77426688       2.65787713       33      100
H        5.92364774      11.81133644       3.15460967       33      101
O        6.21904479      12.39299597       6.36275380       34      102
H        5.29566385       0.21315728       6.32808061       34      103
H        6.22081399      11.54027785       6.79761068       34      104
O        6.26176296       0.09293155       9.52824258       35      105
H        5.92744245       0.14179136       8.63265654       35      106
H        6.78896872       0.88520308       9.63115877       35      107
O        6.30568606       3.29136089       0.09726100       36      108
H        5.40611184       3.53395405      12.30747070       36      109
H        6.43382257       2.44043006      12.10769297       36      110
O        6.27179852       3.17059798       3.18867233       37      111
H        7.11120952       2.97667707       2.77152046       37      112
H        5.63771247       3.15245493       2.47184771       37      113
O        6.32545094       3.02459377       6.27614474       38      114
H        7.14382546       2.86349381       6.74576351       38      115
H        5.79233083       3.53034567       6.88952049       38      116
O        6.22387752       3.19474903       9.44798013       39      117
H        5.54462372       3.44547641      10.07406471       39      118
H        6.12271374       2.24791525       9.35049413       39      119
O        6.23475151       6.14118276       0.09377371       40      120
H        6.49350460       5.29872308      12.14985581       40      121
H        5.83259947       6.61355834      11.79445766       40      122
O        6.27077841       6.34017898       3.14294148       41      123
H        6.36543307       6.18813125       4.08323602       41      124
H        6.71971036       5.60037404       2.73381976       41      125
O        6.21481656       6.21481656       6.21481656       42      126
H        5.98373879       6.91151346       6.82918480       42      127
H        6.79439123       5.63826024       6.71272001       42      128
O        6.19746760       6.31520038       9.60912153       43      129
H        5.81882714       6.73367289       8.83598248       43      130
H        7.12749613       6.53852578       9.57164427       43      131
O        6.19993126       9.34311351       0.13803669       44      132
H        6.95986911       9.89941874       0.30906531       44      133
H        6.24366018       9.15891161      11.62937920       44      134
O        6.28086319       9.31669061       3.13002180       45      135
H        5.59026536       9.95699853       3.30122996       45      136
H        6.79367596       9.70112162       2.41905928       45      137
O        6.31725212       9.33953604       6.40121779       46      138
H        6.53819434      10.23992275       6.63937769       46      139
H        5.71097732       9.05255380       7.08408227       46      140
O        6.31358744       9.39678646       9.28575814       47      141
H        5.82182237       8.66388518       8.91527917       47      142
H        5.95703551      10.17027507       8.84893102       47      143
O        9.29265845       0.12151182       0.14393155       48      144
H        8.82346874       0.61099178       0.81958103       48      145
H       10.20791182       0.14390892       0.42329057       48      146
O        9.33272665      12.33757678       3.27280440       49      147
H        8.70165643       0.42225954       3.77625390       49      148
H        9.30552807      11.46762823       3.67115298       49      149
O        9.36631514       0.02577666       6.39295829       50      150
H       10.31907697      12.36465739       6.37744264       50      151
H        9.04023411      11.62088194       6.05611072       50      152
O        9.39473603       0.19316101       9.42418098       51      153
H        9.42472115       0.47443775      10.33862951       51      154
H       10.31319305       0.09581311       9.17280095       51      155
O        9.29908954       2.94980464       0.21859983       52      156
H        8.45447423       3.23011994       0.57113373       52      157
H        9.40837704       2.05495293       0.54035827       52      158
O        9.29256796       3.08179907       3.19133471       53      159
H       10.10352948       2.69637347       2.85964153       53      160
H        9.38559934       3.05404064       4.14359858       53      161
O        9.40544782       3.06027754       6.34446964       54      162
H        9.08418163       3.64832354       5.66093341       54      163
H       10.12981697       3.53677911       6.75001548       54      164
O        9.37897855       3.16928970       9.36518929       55      165
H       10.32877002       3.18515534       9.48298696       55      166
H        9.02580914       3.26877940      10.24927356       55      167
O        9.50878525       6.17859494       0.10298599       56      168
H        9.47549925       5.45728812       0.73134923       56      169
H        8.87256550       5.93932048      11.85867251       56      170
O        9.25916328       6.25727180       3.12001870       57      171
H        8.68845341       6.97179964       3.40281200       57      172
H        9.60447239       6.54593266       2.27522975       57      173
O        9.40753889       6.11219116       6.29687940       58      174
H        9.23973216       5.18100583       6.15208083       58      175
H       10.29040102       6.25296621       5.95487255       58      176
O        9.38329867       6.20153273       9.36230670       59      177
H        8.78309943       6.93965690       9.25664008       59      178
H        9.24572947       5.66654550       8.58058091       59      179
O        9.27338835       9.24721186       0.08312795       60      180
H        9.08970339       9.86383804      11.80405533       60      181
H        9.82290143       9.73939018       0.69306870       60      182
O        9.46381573       9.45176833       3.38838579       61      183
H       10.21369126       8.97346224       3.74213969       61      184
H        9.55466968       9.37219155       2.43883593       61      185
O        9.36587819       9.31461455       6.36696130       62      186
H       10.27688109       9.35912741       6.07657509       62      187
H        9.24714513       8.40684010       6.64638902       62      188
O        9.28185688       9.36411522       9.40050533       63      189
H        9.47136731       8.44639438       9.59571314       63      190
H        8.45741354       9.34084759       8.91472387       63      191
