21
Properties=species:S:1:pos:R:3 frame=0 source="02b schematic ReaxFF" pbc="F F F"
C -0.8289904917 -0.0024715304 -0.1397440954
C -0.0054119062 -0.1225430957 0.9995284072
C 1.3970833597 -0.0664442055 0.9294433039
C 2.0066811731 0.1397505115 -0.3122659516
C 1.2329739198 0.2995535425 -1.4663065154
C -0.1671986125 0.2382765982 -1.3623320746
C -2.3307000974 -0.1022863536 -0.0521535720
H 1.9932168935 -0.1778526311 1.8358399400
H 1.7006055707 0.4747334722 -2.4358293590
H -2.6432601432 -0.7819398169 0.7470516445
H -2.7606466031 -0.5202480444 -0.9680185220
H -2.7642064319 0.8860173307 0.1283228265
N -0.5855378661 -0.3036256904 2.3251879941
N 3.4717492166 0.2063087261 -0.4024509616
N -0.9223940416 0.4475883768 -2.5922075751
O -0.2156492114 -1.2956985963 2.9638096740
O -1.3855431853 0.5560146908 2.7117934250
O 4.1151729425 0.0688823714 0.6454717940
O 3.9668618432 0.3995106129 -1.5198404914
O -0.6611816037 -0.3021003474 -3.5401529067
O -1.7491428225 1.3667880623 -2.5956127675
21
Properties=species:S:1:pos:R:3 frame=1 source="02b schematic ReaxFF" pbc="F F F"
C -0.8215110570 0.0017245393 -0.1690508233
C 0.0073874191 -0.1170611760 0.9613041501
C 1.4053052199 -0.0620697025 0.8991588744
C 2.0001444686 0.1433405323 -0.3407712929
C 1.2413961395 0.3036590664 -1.4948086512
C -0.1502562954 0.2403498592 -1.3788106809
C -2.3200849996 -0.0979382767 -0.0816897403
H 1.9956462471 -0.1730303265 1.8013375705
H 1.7044911633 0.4770199311 -2.4536587402
H -2.6301100099 -0.7676378756 0.7086691705
H -2.7459373806 -0.5102027353 -0.9807359756
H -2.7493819577 0.8749280436 0.0993790711
N -0.6236259344 -0.3214568285 2.4485519515
N 3.4938429891 0.2111957244 -0.4328122558
N -0.9202620503 0.4537333156 -2.6328641907
O -0.2510606543 -1.3126828598 3.0809741852
O -1.4209639018 0.5390380836 2.8289556057
O 4.1233730614 0.0733140267 0.6147783572
O 3.9752075368 0.4035701533 -1.5481015294
O -0.6525398970 -0.2969654744 -3.5685906424
O -1.7392877813 1.3700503335 -2.6251295408
21
Properties=species:S:1:pos:R:3 frame=2 source="02b schematic ReaxFF" pbc="F F F"
C -0.8143020217 0.0056257240 -0.1962046502
C 0.0180508473 -0.1122908754 0.9279215174
C 1.4131037003 -0.0580306620 0.8711695214
C 1.9729936271 0.1457423729 -0.3662226501
C 1.2484088975 0.3072039900 -1.5198799457
C -0.1235227237 0.2392386573 -1.3764956116
C -2.3089573205 -0.0943886109 -0.1067229336
H 1.9912712418 -0.1709353181 1.7857449526
H 1.7140255848 0.4807884202 -2.4756406895
H -2.6208263501 -0.7533862294 0.6874885394
H -2.7536458811 -0.5192232390 -1.0095811232
H -2.7485610194 0.8800646026 0.0937098900
N -0.6609403461 -0.3390774733 2.5703353023
N 3.5336840447 0.2166735472 -0.4626842180
N -0.9280892357 0.4623099331 -2.6873413600
O -0.2863215440 -1.3297478808 3.1980029430
O -1.4563834271 0.5221911122 2.9459446798
O 4.1312071009 0.0774694247 0.5859658568
O 3.9831403227 0.4075211955 -1.5755686837
O -0.6440385240 -0.2924505839 -3.5959312185
O -1.7300933165 1.3735134682 -2.6530623510
21
Properties=species:S:1:pos:R:3 frame=3 source="02b schematic ReaxFF" pbc="F F F"
C -0.8069892562 0.0090033584 -0.2194070438
C 0.0210953805 -0.1100723406 0.9124398004
C 1.4210808367 -0.0547154772 0.8482913110
C 1.9433485811 0.1476079418 -0.3887046600
C 1.2531463247 0.3099114811 -1.5399840008
C -0.0969575126 0.2373903108 -1.3699981890
C -2.3007673405 -0.0918206888 -0.1304018244
H 1.9639252997 -0.1714007388 1.7855343381
H 1.7274050644 0.4848546339 -2.4919633403
H -2.6182256333 -0.7379148725 0.6928874015
H -2.7641084374 -0.5228886859 -0.9846959686
H -2.7544215403 0.8685602464 0.1184517623
N -0.6946987003 -0.3557711126 2.6851530340
N 3.5775037872 0.2220281503 -0.4905840290
N -0.9390256426 0.4711775282 -2.7434570339
O -0.3224602547 -1.3475110192 3.3185774745
O -1.4929354987 0.5050292636 3.0664060157
O 4.1387016179 0.0810658639 0.5609485113
O 3.9904715907 0.4114907003 -1.6030152713
O -0.6352008144 -0.2896067526 -3.6222343328
O -1.7224255920 1.3781635875 -2.6783545626
21
Properties=species:S:1:pos:R:3 frame=4 source="02b schematic ReaxFF" pbc="F F F"
C -0.7945448775 0.0104400631 -0.2266313256
C 0.0182882046 -0.1097696899 0.9102466930
C 1.4203993309 -0.0530007356 0.8346706415
C 1.9277690809 0.1492244350 -0.4060031263
C 1.2544706206 0.3113710653 -1.5526738146
C -0.0806690178 0.2368186691 -1.3709870062
C -2.2943537696 -0.0879525494 -0.1441715541
H 1.9129864464 -0.1738639465 1.7967493224
H 1.7391138241 0.4869941250 -2.4896121897
H -2.6101924147 -0.7058307311 0.7021322356
H -2.8139606737 -0.5540606263 -0.9729513346
H -2.7580067499 0.8270297797 0.1661608946
N -0.7240306483 -0.3721207610 2.7904822059
N 3.6113928219 0.2262496471 -0.5128412996
N -0.9471911077 0.4779687779 -2.7872529825
O -0.3594193255 -1.3590228526 3.4314546544
O -1.5244361984 0.4844208484 3.1809665904
O 4.1450065804 0.0835238608 0.5436671120
O 3.9961888774 0.4152187549 -1.6285974872
O -0.6263166021 -0.2896125260 -3.6450113562
O -1.7176088278 1.3843898983 -2.6976517887
21
Properties=species:S:1:pos:R:3 frame=5 source="02b schematic ReaxFF" pbc="F F F"
C -0.7851753043 0.0095937752 -0.2187693301
C 0.0115128088 -0.1113370820 0.9214453514
C 1.4125911520 -0.0528274225 0.8300573633
C 1.9318678210 0.1506973328 -0.4175287583
C 1.2514458452 0.3113652896 -1.5574550839
C -0.0781198760 0.2381949279 -1.3835950553
C -2.2832514982 -0.0857058345 -0.1555107171
H 1.8519357303 -0.1776509232 1.8172764698
H 1.7546943443 0.4892726100 -2.4801188942
H -2.5903125518 -0.6685885870 0.7050019783
H -2.8668085219 -0.5789793880 -0.9217239540
H -2.7688016862 0.7926251215 0.2268119894
N -0.7500489721 -0.3870431505 2.8878057351
N 3.6315519893 0.2291551077 -0.5291340150
N -0.9507074253 0.4820307817 -2.8153586742
O -0.3976256751 -1.3669573699 3.5419236814
O -1.5527453750 0.4605327664 3.2938459055
O 4.1498758058 0.0847304610 0.5348187746
O 3.9999472794 0.4187433659 -1.6526143092
O -0.6170345997 -0.2928490277 -3.6641067224
O -1.7157755018 1.3925327190 -2.7104183194
21
Properties=species:S:1:pos:R:3 frame=6 source="02b schematic ReaxFF" pbc="F F F"
C -0.7829551249 0.0074456384 -0.2037987629
C 0.0042560854 -0.1155308368 0.9528961076
C 1.4029334379 -0.0540771936 0.8345281197
C 1.9569272725 0.1518630176 -0.4217725078
C 1.2432908808 0.3097194262 -1.5544705764
C -0.0911977951 0.2414879681 -1.4076999556
C -2.2665156822 -0.0815551830 -0.1677724016
H 1.8000980835 -0.1810358186 1.8385190961
H 1.7765520584 0.4926384440 -2.4695713614
H -2.5567986122 -0.6539294710 0.7074381640
H -2.9325702724 -0.6035279602 -0.8537075550
H -2.7850226751 0.7769644616 0.2815107875
N -0.7736114135 -0.3980838076 2.9763048616
N 3.6366067458 0.2306295856 -0.5389486589
N -0.9491345057 0.4829975971 -2.8261430504
O -0.4371813101 -1.3749948028 3.6560159568
O -1.5797362807 0.4335047098 3.4093324602
O 4.1528160942 0.0845772119 0.5350643538
O 4.0012005602 0.4219672892 -1.6744887192
O -0.6072875746 -0.2994070702 -3.6786937032
O -1.7168904506 1.4025284493 -2.7158479245
21
Properties=species:S:1:pos:R:3 frame=7 source="02b schematic ReaxFF" pbc="F F F"
C -0.7633245404 0.0069312367 -0.1896816418
C -0.0028000716 -0.1195975584 0.9836257599
C 1.3921865551 -0.0549458671 0.8361051388
C 1.9904803343 0.1503489913 -0.4052550697
C 1.2312226978 0.3067843609 -1.5463338847
C -0.1281757600 0.2419618638 -1.4174862900
C -2.2538271313 -0.0730180677 -0.1807679157
H 1.7803055364 -0.1815081980 1.8459921091
H 1.7937907649 0.4940085552 -2.4471504814
H -2.5043264837 -0.6604132995 0.6888938514
H -2.9841467746 -0.6082684628 -0.7751314866
H -2.7769872958 0.7484993752 0.2818757570
N -0.7942859927 -0.4097536386 3.0596214920
N 3.6279763806 0.2306248338 -0.5414493627
N -0.9436309485 0.4809452257 -2.8199693989
O -0.4789695144 -1.3735458196 3.7606846475
O -1.5995118780 0.4004722266 3.5182517230
O 4.1531136095 0.0831554234 0.5438012936
O 3.9994639273 0.4244099373 -1.6910863938
O -0.5982551120 -0.3080600966 -3.6865828670
O -1.7202864184 1.4127653701 -2.7133676082
21
Properties=species:S:1:pos:R:3 frame=8 source="02b schematic ReaxFF" pbc="F F F"
C -0.7351557651 0.0056941985 -0.1649147293
C -0.0074456797 -0.1228635029 1.0093743848
C 1.3839356502 -0.0546022661 0.8297129924
C 2.0124987593 0.1468849734 -0.3763366150
C 1.2242066342 0.3008488156 -1.5216134246
C -0.1767405513 0.2411656461 -1.4196489304
C -2.2421826423 -0.0631097813 -0.1980221169
H 1.7999889767 -0.1777541273 1.8315392776
H 1.8036632885 0.4930463663 -2.4137325552
H -2.4367736117 -0.6735099141 0.6513904161
H -3.0254654421 -0.5980861653 -0.7124578440
H -2.7725403898 0.7497026641 0.2542779010
N -0.8088187587 -0.4200852383 3.1296603340
N 3.6108243123 0.2297274708 -0.5391922755
N -0.9359547752 0.4758381717 -2.8015188896
O -0.5216579248 -1.3710146567 3.8655904986
O -1.6190982817 0.3666722095 3.6279605080
O 4.1504835618 0.0806910466 0.5594614734
O 3.9940775446 0.4256019824 -1.6995978014
O -0.5906542333 -0.3171391103 -3.6865301648
O -1.7250520864 1.4222073071 -2.7036104206
21
Properties=species:S:1:pos:R:3 frame=9 source="02b schematic ReaxFF" pbc="F F F"
C -0.7299081813 0.0031307485 -0.1378948186
C -0.0071420735 -0.1269018392 1.0434041025
C 1.3784760942 -0.0562045936 0.8361543329
C 2.0139520877 0.1470213292 -0.3731396748
C 1.1984949697 0.2892024983 -1.4678258835
C -0.1877068543 0.2415036976 -1.4195771441
C -2.2208752199 -0.0507936989 -0.2217864552
H 1.8600517340 -0.1717640214 1.8089392493
H 1.7826875001 0.4848881737 -2.3525325562
H -2.3729870156 -0.6829601863 0.6246432160
H -3.0522727682 -0.5741569617 -0.6781970850
H -2.7692212314 0.7591284121 0.2156531106
N -0.8234261500 -0.4277608102 3.1967359199
N 3.6023647091 0.2279443768 -0.5278810405
N -0.9398637929 0.4769202263 -2.7856983583
O -0.5676128290 -1.3607341477 3.9662057935
O -1.6307236012 0.3242626210 3.7341207210
O 4.1373392880 0.0794767884 0.5653025668
O 3.9815573245 0.4234983482 -1.6878017435
O -0.5892975020 -0.3160150645 -3.6673796744
O -1.7163601786 1.4128878170 -2.6890160708
21
Properties=species:S:1:pos:R:3 frame=10 source="02b schematic ReaxFF" pbc="F F F"
C -0.7272362900 0.0034141799 -0.1273843592
C -0.0059742483 -0.1311514721 1.0805150573
C 1.3778492648 -0.0598534246 0.8562375428
C 2.0118822768 0.1464711275 -0.3648328730
C 1.1545900405 0.2773990698 -1.4213441644
C -0.1865321167 0.2377654161 -1.3919414734
C -2.2027282711 -0.0372548770 -0.2532042571
H 1.9447788899 -0.1647191842 1.7833777676
H 1.7529889006 0.4791857865 -2.3132932770
H -2.3359119645 -0.6866736544 0.6326945460
H -3.0722206941 -0.5506391903 -0.6763704294
H -2.7724731466 0.7672565739 0.1932240538
N -0.8321281106 -0.4361093269 3.2539187869
N 3.5977833772 0.2247233528 -0.5053602973
N -0.9494372615 0.4803040804 -2.7670113458
O -0.6164415109 -1.3448101507 4.0645870800
O -1.6400417479 0.2782474671 3.8408960631
O 4.1174849340 0.0786854836 0.5675538241
O 3.9654390421 0.4197161889 -1.6652556375
O -0.5909223793 -0.3122512629 -3.6383795969
O -1.7038783226 1.3964320289 -2.6691330919
21
Properties=species:S:1:pos:R:3 frame=11 source="02b schematic ReaxFF" pbc="F F F"
C -0.7185199556 0.0004255764 -0.0895814480
C -0.0111834077 -0.1321207429 1.0921015540
C 1.3763351089 -0.0649157598 0.8845482984
C 2.0002310931 0.1436804323 -0.3421630587
C 1.1169682986 0.2676264196 -1.3914451055
C -0.1860095607 0.2326159190 -1.3541866207
C -2.1931461180 -0.0284897459 -0.2873978991
H 2.0300675662 -0.1570643907 1.7536322222
H 1.7075962785 0.4718580375 -2.2797298657
H -2.3351677324 -0.6364954104 0.6119399827
H -3.0675772998 -0.5334847736 -0.6883472145
H -2.7806383052 0.7656518634 0.2054574399
N -0.8366370379 -0.4451618969 3.3055837909
N 3.5912548644 0.2213611657 -0.4815048945
N -0.9578388555 0.4795149118 -2.7421171342
O -0.6705541960 -1.3206887953 4.1627074024
O -1.6450682890 0.2249561017 3.9503538588
O 4.0962659113 0.0768505786 0.5770197040
O 3.9463600292 0.4146198701 -1.6341422702
O -0.5941944186 -0.3087695242 -3.6026777593
O -1.6946324519 1.3813279862 -2.6430909628
21
Properties=species:S:1:pos:R:3 frame=12 source="02b schematic ReaxFF" pbc="F F F"
C -0.7226330082 -0.0029480389 -0.0534839157
C -0.0097669218 -0.1330551624 1.1055565735
C 1.3758309508 -0.0705989768 0.9161412907
C 1.9799165736 0.1389086598 -0.3069159292
C 1.0934706211 0.2609410459 -1.3820386497
C -0.1885494914 0.2274743946 -1.3153256252
C -2.1963731282 -0.0207623559 -0.3183877429
H 2.0903696407 -0.1506068102 1.7282719477
H 1.6774832021 0.4689871547 -2.2738482343
H -2.3647649894 -0.5754572752 0.5725659726
H -3.0444019731 -0.5377950913 -0.7018348376
H -2.7596363215 0.7200270786 0.2221116495
N -0.8420535980 -0.4513000826 3.3547786016
N 3.5815553754 0.2179814992 -0.4578452652
N -0.9623751512 0.4731894193 -2.7121487819
O -0.7270715078 -1.2877097587 4.2524504830
O -1.6403208456 0.1628730787 4.0522947409
O 4.0766302693 0.0739621720 0.5941627645
O 3.9269945972 0.4091788631 -1.6003670315
O -0.5984292204 -0.3064245586 -3.5645531807
O -1.6907538534 1.3707458735 -2.6134933786
21
Properties=species:S:1:pos:R:3 frame=13 source="02b schematic ReaxFF" pbc="F F F"
C -0.7392130655 -0.0065340851 -0.0208242014
C -0.0088151063 -0.1345347417 1.1234357335
C 1.3741132306 -0.0782061745 0.9579304230
C 1.9463640390 0.1361984068 -0.2875829980
C 1.1000093673 0.2556839847 -1.3776648002
C -0.1960712183 0.2227931300 -1.2780018197
C -2.2076346847 -0.0134700025 -0.3477860159
H 2.1285997514 -0.1471625197 1.7245970304
H 1.6630587196 0.4678075659 -2.2734207837
H -2.3980652653 -0.5615273153 0.5505384189
H -3.0381163825 -0.5804315009 -0.7212770558
H -2.7413153354 0.6968228264 0.2429792320
N -0.8386995010 -0.4604960323 3.3920603230
N 3.5670611673 0.2145637536 -0.4347331712
N -0.9625790581 0.4614240755 -2.6766844986
O -0.7869754105 -1.2480828203 4.3394666705
O -1.6353759216 0.0982489887 4.1575331678
O 4.0591810297 0.0699947938 0.6191945763
O 3.9078124657 0.4036518176 -1.5655666702
O -0.6031863475 -0.3057587345 -3.5253472382
O -1.6925025714 1.3653412364 -2.5809064814
21
Properties=species:S:1:pos:R:3 frame=14 source="02b schematic ReaxFF" pbc="F F F"
C -0.7703265021 -0.0102472739 0.0067307184
C -0.0101187534 -0.1367872974 1.1467706389
C 1.3708443880 -0.0866657088 1.0015204868
C 1.9127273887 0.1334017599 -0.2658908850
C 1.1243726658 0.2529210319 -1.3904291760
C -0.2077711292 0.2190005550 -1.2442966989
C -2.2274615568 -0.0060311467 -0.3710067172
H 2.1554453472 -0.1457517115 1.7448860605
H 1.6714587821 0.4719267382 -2.2840972965
H -2.4015167876 -0.5961293444 0.5256179706
H -3.0394967765 -0.6471657840 -0.7325354413
H -2.7220421171 0.7025011985 0.2464066383
N -0.8427398551 -0.4618799507 3.4347569763
N 3.5458244986 0.2109088835 -0.4114048991
N -0.9591295215 0.4452897241 -2.6355995279
O -0.8520986666 -1.2000572281 4.4256574593
O -1.6157282943 0.0188163816 4.2558691519
O 4.0443006813 0.0649651067 0.6520271331
O 3.8894219705 0.3982940861 -1.5312924268
O -0.6081307219 -0.3074307002 -3.4864724485
O -1.6997446065 1.3651073528 -2.5458695161
21
Properties=species:S:1:pos:R:3 frame=15 source="02b schematic ReaxFF" pbc="F F F"
C -0.8106245932 -0.0135528133 0.0263196764
C -0.0145168084 -0.1396265607 1.1731388903
C 1.3676119015 -0.0938476445 1.0329632314
C 1.8851770129 0.1295066515 -0.2344964671
C 1.1567031288 0.2518497775 -1.4165237715
C -0.2193817481 0.2166956311 -1.2182776562
C -2.2561061255 -0.0007554194 -0.3875419033
H 2.1650495160 -0.1431022237 1.7654116231
H 1.7060354355 0.4874182927 -2.3225263949
H -2.3679629346 -0.6493465919 0.5165944361
H -3.0257912233 -0.6913653970 -0.7208096573
H -2.7168796276 0.7377808362 0.2540382897
N -0.8376954744 -0.4705956067 3.4697653517
N 3.5191772043 0.2071024845 -0.3886171321
N -0.9544890769 0.4286034208 -2.5939659167
O -0.9165942899 -1.1458180530 4.5011589803
O -1.5985938642 -0.0579517849 4.3548520010
O 4.0332807351 0.0595454710 0.6881725698
O 3.8741687392 0.3938082737 -1.5019687638
O -0.6125896912 -0.3116328666 -3.4529125415
O -1.7106832990 1.3688835148 -2.5124856779
21
Properties=species:S:1:pos:R:3 frame=16 source="02b schematic ReaxFF" pbc="F F F"
C -0.8436738934 -0.0169861633 0.0491664493
C -0.0327801891 -0.1413778955 1.1872174374
C 1.3576358722 -0.1020761201 1.0632354617
C 1.8618630742 0.1287308990 -0.2238066516
C 1.1827880509 0.2495651888 -1.4338663838
C -0.2087861894 0.2157922512 -1.1993529769
C -2.2925705870 0.0027911150 -0.3944711623
H 2.1576065786 -0.1359126413 1.7657904353
H 1.7297016815 0.5048815673 -2.3438435966
H -2.3159608978 -0.6439250937 0.5013843468
H -3.0272260125 -0.7202189978 -0.6980523989
H -2.7217408986 0.7635879670 0.2804792778
N -0.8388070268 -0.4738453469 3.5099803745
N 3.4880490366 0.2029620201 -0.3650471120
N -0.9514561750 0.4138955573 -2.5541985054
O -0.9790929808 -1.0928328678 4.5739753047
O -1.5735999979 -0.1368391232 4.4423319330
O 4.0256486473 0.0540518983 0.7254027897
O 3.8624901164 0.3902582367 -1.4779620243
O -0.6165590376 -0.3182341743 -3.4254738654
O -1.7236952453 1.3748723199 -2.4815738612
