6
Properties=species:S:1:pos:R:3 frame=0 source="RHF force VV displacement with documented visual amplification" pbc="F F F"
O -1.4500000000 -0.1000000000 -0.1000000000
H -0.5567641119 -0.4473695120 0.1481210800
H -1.5144237272 0.7289137181 0.4374491895
O 1.4200000000 0.1800000000 0.2000000000
H 2.0338464620 0.7962287735 0.6728156298
H 1.7966263398 -0.7086087940 0.4205153315
6
Properties=species:S:1:pos:R:3 frame=1 source="RHF force VV displacement with documented visual amplification" pbc="F F F"
O -1.4500033622 -0.1000031277 -0.1000012756
H -0.5567767674 -0.4472696195 0.1481306428
H -1.5143601673 0.7288826912 0.4374504946
O 1.4199971248 0.1799991169 0.1999993695
H 2.0338507089 0.7961753319 0.6728186504
H 1.7966701924 -0.7085605588 0.4205317047
6
Properties=species:S:1:pos:R:3 frame=2 source="RHF force VV displacement with documented visual amplification" pbc="F F F"
O -1.4500134490 -0.1000125106 -0.1000051022
H -0.5568147340 -0.4469699419 0.1481593313
H -1.5141694875 0.7287896105 0.4374544099
O 1.4199884993 0.1799964678 0.1999974781
H 2.0338634495 0.7960150074 0.6728277120
H 1.7968017500 -0.7084158533 0.4205808244
6
Properties=species:S:1:pos:R:3 frame=3 source="RHF force VV displacement with documented visual amplification" pbc="F F F"
O -1.4500302602 -0.1000281489 -0.1000114800
H -0.5568780115 -0.4464704792 0.1482071454
H -1.5138516878 0.7286344761 0.4374609354
O 1.4199741234 0.1799920525 0.1999943257
H 2.0338846838 0.7957477997 0.6728428146
H 1.7970210127 -0.7081746774 0.4206626906
6
Properties=species:S:1:pos:R:3 frame=4 source="RHF force VV displacement with documented visual amplification" pbc="F F F"
O -1.4500537958 -0.1000500425 -0.1000204089
H -0.5569666001 -0.4457712315 0.1482740851
H -1.5134067682 0.7284172879 0.4374700711
O 1.4199539972 0.1799858711 0.1999899123
H 2.0339144118 0.7953737091 0.6728639584
H 1.7973279805 -0.7078370311 0.4207773032
6
Properties=species:S:1:pos:R:3 frame=5 source="RHF force VV displacement with documented visual amplification" pbc="F F F"
O -1.4500840560 -0.1000781914 -0.1000318889
H -0.5570804997 -0.4448721987 0.1483601504
H -1.5128347287 0.7281380459 0.4374818169
O 1.4199281206 0.1799779236 0.1999842380
H 2.0339526335 0.7948927354 0.6728911432
H 1.7977226534 -0.7074029145 0.4209246622
6
Properties=species:S:1:pos:R:3 frame=6 source="RHF force VV displacement with documented visual amplification" pbc="F F F"
O -1.4501210406 -0.1001125956 -0.1000459200
H -0.5572197104 -0.4437733809 0.1484653414
H -1.5121355693 0.7277967501 0.4374961730
O 1.4198964937 0.1799682099 0.1999773028
H 2.0339993490 0.7943048786 0.6729243691
H 1.7982050314 -0.7068723276 0.4211047677
6
Properties=species:S:1:pos:R:3 frame=7 source="RHF force VV displacement with documented visual amplification" pbc="F F F"
O -1.4501647498 -0.1001532551 -0.1000625022
H -0.5573842321 -0.4424747780 0.1485896580
H -1.5113092901 0.7273934006 0.4375131392
O 1.4198591165 0.1799567302 0.1999691066
H 2.0340545581 0.7936101388 0.6729636360
H 1.7987751145 -0.7062452703 0.4213176197
6
Properties=species:S:1:pos:R:3 frame=8 source="RHF force VV displacement with documented visual amplification" pbc="F F F"
O -1.4502151834 -0.1002001699 -0.1000816356
H -0.5575740647 -0.4409763900 0.1487331002
H -1.5103558909 0.7269279973 0.4375327157
O 1.4198159888 0.1799434843 0.1999596494
H 2.0341182610 0.7928085160 0.6730089440
H 1.7994329027 -0.7055217426 0.4215632181
6
Properties=species:S:1:pos:R:3 frame=9 source="RHF force VV displacement with documented visual amplification" pbc="F F F"
O -1.4502723414 -0.1002533400 -0.1001033200
H -0.5577892085 -0.4392782169 0.1488956681
H -1.5092753719 0.7264005402 0.4375549023
O 1.4197671109 0.1799284723 0.1999489313
H 2.0341904576 0.7919000101 0.6730602931
H 1.8001783959 -0.7047017446 0.4218415630
6
Properties=species:S:1:pos:R:3 frame=10 source="RHF force VV displacement with documented visual amplification" pbc="F F F"
O -1.4503362240 -0.1003127655 -0.1001275556
H -0.5580296632 -0.4373802588 0.1490773616
H -1.5080677330 0.7258110293 0.4375796991
O 1.4197124826 0.1799116943 0.1999369522
H 2.0342711480 0.7908846212 0.6731176833
H 1.8010115943 -0.7037852763 0.4221526544
6
Properties=species:S:1:pos:R:3 frame=11 source="RHF force VV displacement with documented visual amplification" pbc="F F F"
O -1.4504068310 -0.1003784462 -0.1001543422
H -0.5582954290 -0.4352825156 0.1492781807
H -1.5067329742 0.7251594647 0.4376071061
O 1.4196521039 0.1798931500 0.1999237121
H 2.0343603320 0.7897623492 0.6731811145
H 1.8019324977 -0.7027723376 0.4224964922
6
Properties=species:S:1:pos:R:3 frame=12 source="RHF force VV displacement with documented visual amplification" pbc="F F F"
O -1.4504841625 -0.1004503823 -0.1001836800
H -0.5585865058 -0.4329849874 0.1494981255
H -1.5052710956 0.7244458462 0.4376371233
O 1.4195859749 0.1798728397 0.1999092111
H 2.0344580098 0.7885331941 0.6732505868
H 1.8029411062 -0.7016629285 0.4228730764
6
Properties=species:S:1:pos:R:3 frame=13 source="RHF force VV displacement with documented visual amplification" pbc="F F F"
O -1.4505682185 -0.1005285737 -0.1002155689
H -0.5589028936 -0.4304876741 0.1497371959
H -1.5036820970 0.7236701740 0.4376697507
O 1.4195140956 0.1798507633 0.1998934492
H 2.0345641812 0.7871971561 0.6733261002
H 1.8040374198 -0.7004570491 0.4232824072
6
Properties=species:S:1:pos:R:3 frame=14 source="RHF force VV displacement with documented visual amplification" pbc="F F F"
O -1.4506589990 -0.1006130203 -0.1002500089
H -0.5592445925 -0.4277905757 0.1499953919
H -1.5019659786 0.7228324481 0.4377049883
O 1.4194364658 0.1798269207 0.1998764262
H 2.0346788464 0.7857542349 0.6734076546
H 1.8052214385 -0.6991546993 0.4237244843
6
Properties=species:S:1:pos:R:3 frame=15 source="RHF force VV displacement with documented visual amplification" pbc="F F F"
O -1.4507565040 -0.1007037223 -0.1002870000
H -0.5596116023 -0.4248936923 0.1502727135
H -1.5001227402 0.7219326683 0.4377428361
O 1.4193530858 0.1798013121 0.1998581424
H 2.0348020054 0.7842044308 0.6734952501
H 1.8064931623 -0.6977558792 0.4241993080
6
Properties=species:S:1:pos:R:3 frame=16 source="RHF force VV displacement with documented visual amplification" pbc="F F F"
O -1.4508607334 -0.1008006796 -0.1003265423
H -0.5600039232 -0.4217970238 0.1505691608
H -1.4981523820 0.7209708348 0.4377832941
O 1.4192639554 0.1797739373 0.1998385975
H 2.0349336580 0.7825477436 0.6735888867
H 1.8078525912 -0.6962605887 0.4247068781
6
Properties=species:S:1:pos:R:3 frame=17 source="RHF force VV displacement with documented visual amplification" pbc="F F F"
O -1.4509716873 -0.1009038922 -0.1003686356
H -0.5604215552 -0.4185005702 0.1508847338
H -1.4960549039 0.7199469475 0.4378263622
O 1.4191690746 0.1797447964 0.1998177917
H 2.0350738043 0.7807841733 0.6736885643
H 1.8092997252 -0.6946688278 0.4252471946
6
Properties=species:S:1:pos:R:3 frame=18 source="RHF force VV displacement with documented visual amplification" pbc="F F F"
O -1.4510893657 -0.1010133602 -0.1004132801
H -0.5608644981 -0.4150043316 0.1512194323
H -1.4938303059 0.7188610064 0.4378720406
O 1.4190684435 0.1797138894 0.1997957250
H 2.0352224444 0.7789137200 0.6737942830
H 1.8108345642 -0.6929805967 0.4258202576
6
Properties=species:S:1:pos:R:3 frame=19 source="RHF force VV displacement with documented visual amplification" pbc="F F F"
O -1.4512137686 -0.1011290834 -0.1004604756
H -0.5613327521 -0.4113083079 0.1515732565
H -1.4914785881 0.7177130116 0.4379203291
O 1.4189620621 0.1796812162 0.1997723973
H 2.0353795782 0.7769363836 0.6739060428
H 1.8124571084 -0.6911958951 0.4264260671
6
Properties=species:S:1:pos:R:3 frame=20 source="RHF force VV displacement with documented visual amplification" pbc="F F F"
O -1.4513448959 -0.1012510619 -0.1005102223
H -0.5618263171 -0.4074124992 0.1519462063
H -1.4889997503 0.7165029629 0.4379712279
O 1.4188499303 0.1796467770 0.1997478086
H 2.0355452057 0.7748521643 0.6740238437
H 1.8141673576 -0.6893147232 0.4270646230
6
Properties=species:S:1:pos:R:3 frame=21 source="RHF force VV displacement with documented visual amplification" pbc="F F F"
O -1.4514827478 -0.1013792958 -0.1005625201
H -0.5623451931 -0.4033169054 0.1523382817
H -1.4863937927 0.7152308605 0.4380247368
O 1.4187320482 0.1796105716 0.1997219590
H 2.0357193269 0.7726610618 0.6741476856
H 1.8159653119 -0.6873370810 0.4277359254
6
Properties=species:S:1:pos:R:3 frame=22 source="RHF force VV displacement with documented visual amplification" pbc="F F F"
O -1.4516273241 -0.1015137849 -0.1006173690
H -0.5628893802 -0.3990215265 0.1527494828
H -1.4836607152 0.7138967043 0.4380808559
O 1.4186084157 0.1795726002 0.1996948485
H 2.0359019419 0.7703630763 0.6742775686
H 1.8178509713 -0.6852629684 0.4284399743
6
Properties=species:S:1:pos:R:3 frame=23 source="RHF force VV displacement with documented visual amplification" pbc="F F F"
O -1.4517786249 -0.1016545294 -0.1006747690
H -0.5634588783 -0.3945263625 0.1531798095
H -1.4808005178 0.7125004944 0.4381395852
O 1.4184790328 0.1795328626 0.1996664769
H 2.0360930505 0.7679582078 0.6744134926
H 1.8198243358 -0.6830923854 0.4291767696
6
Properties=species:S:1:pos:R:3 frame=24 source="RHF force VV displacement with documented visual amplification" pbc="F F F"
O -1.4519366502 -0.1018015292 -0.1007347201
H -0.5640536874 -0.3898314135 0.1536292618
H -1.4778132005 0.7110422307 0.4382009247
O 1.4183438996 0.1794913589 0.1996368444
H 2.0362926529 0.7654464562 0.6745554577
H 1.8218854054 -0.6808253321 0.4299463113
