6
Properties=species:S:1:pos:R:3 frame=0 source="TIP3P O-O LJ rigid-water VV" pbc="F F F"
O -1.4500000000 0.0000000000 0.0000000000
H -0.4930000000 0.0000000000 0.0000000000
H -1.6896136639 0.9265172918 0.0000000000
O 1.4500000000 0.0000000000 0.0000000000
H 2.0358919370 0.7566899221 0.0000000000
H 2.0358919370 -0.7566899221 0.0000000000
6
Properties=species:S:1:pos:R:3 frame=1 source="TIP3P O-O LJ rigid-water VV" pbc="F F F"
O -1.4502200224 -0.0094868330 0.0284604989
H -0.4932200224 -0.0094868330 0.0284604989
H -1.6898336863 0.9170304589 0.0284604989
O 1.4502200224 0.0094868330 -0.0284604989
H 2.0361119594 0.7661767551 -0.0284604989
H 2.0361119594 -0.7472030891 -0.0284604989
6
Properties=species:S:1:pos:R:3 frame=2 source="TIP3P O-O LJ rigid-water VV" pbc="F F F"
O -1.4508774891 -0.0189765276 0.0569295827
H -0.4938774891 -0.0189765276 0.0569295827
H -1.6904911530 0.9075407643 0.0569295827
O 1.4508774891 0.0189765276 -0.0569295827
H 2.0367694261 0.7756664496 -0.0569295827
H 2.0367694261 -0.7377133945 -0.0569295827
6
Properties=species:S:1:pos:R:3 frame=3 source="TIP3P O-O LJ rigid-water VV" pbc="F F F"
O -1.4519647026 -0.0284718430 0.0854155289
H -0.4949647026 -0.0284718430 0.0854155289
H -1.6915783665 0.8980454489 0.0854155289
O 1.4519647026 0.0284718430 -0.0854155289
H 2.0378566396 0.7851617650 -0.0854155289
H 2.0378566396 -0.7282180791 -0.0854155289
6
Properties=species:S:1:pos:R:3 frame=4 source="TIP3P O-O LJ rigid-water VV" pbc="F F F"
O -1.4534691747 -0.0379753405 0.1139260214
H -0.4964691747 -0.0379753405 0.1139260214
H -1.6930828386 0.8885419514 0.1139260214
O 1.4534691747 0.0379753405 -0.1139260214
H 2.0393611117 0.7946652625 -0.1139260214
H 2.0393611117 -0.7187145816 -0.1139260214
6
Properties=species:S:1:pos:R:3 frame=5 source="TIP3P O-O LJ rigid-water VV" pbc="F F F"
O -1.4553741084 -0.0474893010 0.1424679029
H -0.4983741084 -0.0474893010 0.1424679029
H -1.6949877723 0.8790279909 0.1424679029
O 1.4553741084 0.0474893010 -0.1424679029
H 2.0412660454 0.8041792230 -0.1424679029
H 2.0412660454 -0.7092006211 -0.1424679029
6
Properties=species:S:1:pos:R:3 frame=6 source="TIP3P O-O LJ rigid-water VV" pbc="F F F"
O -1.4576590219 -0.0570156603 0.1710469810
H -0.5006590219 -0.0570156603 0.1710469810
H -1.6972726857 0.8695016315 0.1710469810
O 1.4576590219 0.0570156603 -0.1710469810
H 2.0435509588 0.8137055824 -0.1710469810
H 2.0435509588 -0.6996742617 -0.1710469810
