6
Properties=species:S:1:pos:R:3 frame=0 source="TIP3P O-O LJ rigid-water VV" pbc="F F F"
O -1.4500000000 0.0000000000 0.0000000000
H -0.4930000000 0.0000000000 0.0000000000
H -1.6896136639 0.9265172918 0.0000000000
O 1.4500000000 0.0000000000 0.0000000000
H 2.0358919370 0.7566899221 0.0000000000
H 2.0358919370 -0.7566899221 0.0000000000
6
Properties=species:S:1:pos:R:3 frame=1 source="TIP3P O-O LJ rigid-water VV" pbc="F F F"
O -1.4500003820 -0.0003952847 0.0011858541
H -0.4930003820 -0.0003952847 0.0011858541
H -1.6896140459 0.9261220071 0.0011858541
O 1.4500003820 0.0003952847 -0.0011858541
H 2.0358923190 0.7570852068 -0.0011858541
H 2.0358923190 -0.7562946374 -0.0011858541
6
Properties=species:S:1:pos:R:3 frame=2 source="TIP3P O-O LJ rigid-water VV" pbc="F F F"
O -1.4500015279 -0.0007905694 0.0023717082
H -0.4930015279 -0.0007905694 0.0023717082
H -1.6896151918 0.9257267224 0.0023717082
O 1.4500015279 0.0007905694 -0.0023717082
H 2.0358934649 0.7574804915 -0.0023717082
H 2.0358934649 -0.7558993527 -0.0023717082
6
Properties=species:S:1:pos:R:3 frame=3 source="TIP3P O-O LJ rigid-water VV" pbc="F F F"
O -1.4500034379 -0.0011858541 0.0035575624
H -0.4930034379 -0.0011858541 0.0035575624
H -1.6896171017 0.9253314377 0.0035575624
O 1.4500034379 0.0011858541 -0.0035575624
H 2.0358953748 0.7578757762 -0.0035575624
H 2.0358953748 -0.7555040680 -0.0035575624
6
Properties=species:S:1:pos:R:3 frame=4 source="TIP3P O-O LJ rigid-water VV" pbc="F F F"
O -1.4500061117 -0.0015811388 0.0047434165
H -0.4930061117 -0.0015811388 0.0047434165
H -1.6896197756 0.9249361530 0.0047434165
O 1.4500061117 0.0015811388 -0.0047434165
H 2.0358980487 0.7582710609 -0.0047434165
H 2.0358980487 -0.7551087832 -0.0047434165
6
Properties=species:S:1:pos:R:3 frame=5 source="TIP3P O-O LJ rigid-water VV" pbc="F F F"
O -1.4500095496 -0.0019764235 0.0059292706
H -0.4930095496 -0.0019764235 0.0059292706
H -1.6896232135 0.9245408683 0.0059292706
O 1.4500095496 0.0019764235 -0.0059292706
H 2.0359014866 0.7586663456 -0.0059292706
H 2.0359014866 -0.7547134985 -0.0059292706
6
Properties=species:S:1:pos:R:3 frame=6 source="TIP3P O-O LJ rigid-water VV" pbc="F F F"
O -1.4500137514 -0.0023717082 0.0071151247
H -0.4930137514 -0.0023717082 0.0071151247
H -1.6896274153 0.9241455836 0.0071151247
O 1.4500137514 0.0023717082 -0.0071151247
H 2.0359056884 0.7590616303 -0.0071151247
H 2.0359056884 -0.7543182138 -0.0071151247
6
Properties=species:S:1:pos:R:3 frame=7 source="TIP3P O-O LJ rigid-water VV" pbc="F F F"
O -1.4500187172 -0.0027669930 0.0083009789
H -0.4930187172 -0.0027669930 0.0083009789
H -1.6896323811 0.9237502989 0.0083009789
O 1.4500187172 0.0027669930 -0.0083009789
H 2.0359106542 0.7594569150 -0.0083009789
H 2.0359106542 -0.7539229291 -0.0083009789
6
Properties=species:S:1:pos:R:3 frame=8 source="TIP3P O-O LJ rigid-water VV" pbc="F F F"
O -1.4500244469 -0.0031622777 0.0094868330
H -0.4930244469 -0.0031622777 0.0094868330
H -1.6896381108 0.9233550142 0.0094868330
O 1.4500244469 0.0031622777 -0.0094868330
H 2.0359163839 0.7598521997 -0.0094868330
H 2.0359163839 -0.7535276444 -0.0094868330
6
Properties=species:S:1:pos:R:3 frame=9 source="TIP3P O-O LJ rigid-water VV" pbc="F F F"
O -1.4500309407 -0.0035575624 0.0106726871
H -0.4930309407 -0.0035575624 0.0106726871
H -1.6896446045 0.9229597295 0.0106726871
O 1.4500309407 0.0035575624 -0.0106726871
H 2.0359228776 0.7602474844 -0.0106726871
H 2.0359228776 -0.7531323597 -0.0106726871
6
Properties=species:S:1:pos:R:3 frame=10 source="TIP3P O-O LJ rigid-water VV" pbc="F F F"
O -1.4500381983 -0.0039528471 0.0118585412
H -0.4930381983 -0.0039528471 0.0118585412
H -1.6896518622 0.9225644448 0.0118585412
O 1.4500381983 0.0039528471 -0.0118585412
H 2.0359301353 0.7606427691 -0.0118585412
H 2.0359301353 -0.7527370750 -0.0118585412
6
Properties=species:S:1:pos:R:3 frame=11 source="TIP3P O-O LJ rigid-water VV" pbc="F F F"
O -1.4500462200 -0.0043481318 0.0130443953
H -0.4930462200 -0.0043481318 0.0130443953
H -1.6896598839 0.9221691601 0.0130443953
O 1.4500462200 0.0043481318 -0.0130443953
H 2.0359381570 0.7610380539 -0.0130443953
H 2.0359381570 -0.7523417903 -0.0130443953
6
Properties=species:S:1:pos:R:3 frame=12 source="TIP3P O-O LJ rigid-water VV" pbc="F F F"
O -1.4500550056 -0.0047434165 0.0142302495
H -0.4930550056 -0.0047434165 0.0142302495
H -1.6896686695 0.9217738754 0.0142302495
O 1.4500550056 0.0047434165 -0.0142302495
H 2.0359469426 0.7614333386 -0.0142302495
H 2.0359469426 -0.7519465056 -0.0142302495
6
Properties=species:S:1:pos:R:3 frame=13 source="TIP3P O-O LJ rigid-water VV" pbc="F F F"
O -1.4500645552 -0.0051387012 0.0154161036
H -0.4930645552 -0.0051387012 0.0154161036
H -1.6896782191 0.9213785906 0.0154161036
O 1.4500645552 0.0051387012 -0.0154161036
H 2.0359564922 0.7618286233 -0.0154161036
H 2.0359564922 -0.7515512209 -0.0154161036
6
Properties=species:S:1:pos:R:3 frame=14 source="TIP3P O-O LJ rigid-water VV" pbc="F F F"
O -1.4500748687 -0.0055339859 0.0166019577
H -0.4930748687 -0.0055339859 0.0166019577
H -1.6896885326 0.9209833059 0.0166019577
O 1.4500748687 0.0055339859 -0.0166019577
H 2.0359668057 0.7622239080 -0.0166019577
H 2.0359668057 -0.7511559362 -0.0166019577
6
Properties=species:S:1:pos:R:3 frame=15 source="TIP3P O-O LJ rigid-water VV" pbc="F F F"
O -1.4500859463 -0.0059292706 0.0177878118
H -0.4930859463 -0.0059292706 0.0177878118
H -1.6896996101 0.9205880212 0.0177878118
O 1.4500859463 0.0059292706 -0.0177878118
H 2.0359778833 0.7626191927 -0.0177878118
H 2.0359778833 -0.7507606515 -0.0177878118
6
Properties=species:S:1:pos:R:3 frame=16 source="TIP3P O-O LJ rigid-water VV" pbc="F F F"
O -1.4500977877 -0.0063245553 0.0189736660
H -0.4930977877 -0.0063245553 0.0189736660
H -1.6897114516 0.9201927365 0.0189736660
O 1.4500977877 0.0063245553 -0.0189736660
H 2.0359897247 0.7630144774 -0.0189736660
H 2.0359897247 -0.7503653668 -0.0189736660
6
Properties=species:S:1:pos:R:3 frame=17 source="TIP3P O-O LJ rigid-water VV" pbc="F F F"
O -1.4501103932 -0.0067198400 0.0201595201
H -0.4931103932 -0.0067198400 0.0201595201
H -1.6897240571 0.9197974518 0.0201595201
O 1.4501103932 0.0067198400 -0.0201595201
H 2.0360023302 0.7634097621 -0.0201595201
H 2.0360023302 -0.7499700820 -0.0201595201
6
Properties=species:S:1:pos:R:3 frame=18 source="TIP3P O-O LJ rigid-water VV" pbc="F F F"
O -1.4501237626 -0.0071151247 0.0213453742
H -0.4931237626 -0.0071151247 0.0213453742
H -1.6897374265 0.9194021671 0.0213453742
O 1.4501237626 0.0071151247 -0.0213453742
H 2.0360156996 0.7638050468 -0.0213453742
H 2.0360156996 -0.7495747973 -0.0213453742
6
Properties=species:S:1:pos:R:3 frame=19 source="TIP3P O-O LJ rigid-water VV" pbc="F F F"
O -1.4501378960 -0.0075104094 0.0225312283
H -0.4931378960 -0.0075104094 0.0225312283
H -1.6897515599 0.9190068824 0.0225312283
O 1.4501378960 0.0075104094 -0.0225312283
H 2.0360298330 0.7642003315 -0.0225312283
H 2.0360298330 -0.7491795126 -0.0225312283
6
Properties=species:S:1:pos:R:3 frame=20 source="TIP3P O-O LJ rigid-water VV" pbc="F F F"
O -1.4501527934 -0.0079056942 0.0237170825
H -0.4931527934 -0.0079056942 0.0237170825
H -1.6897664572 0.9186115977 0.0237170825
O 1.4501527934 0.0079056942 -0.0237170825
H 2.0360447303 0.7645956162 -0.0237170825
H 2.0360447303 -0.7487842279 -0.0237170825
6
Properties=species:S:1:pos:R:3 frame=21 source="TIP3P O-O LJ rigid-water VV" pbc="F F F"
O -1.4501684547 -0.0083009789 0.0249029366
H -0.4931684547 -0.0083009789 0.0249029366
H -1.6897821186 0.9182163130 0.0249029366
O 1.4501684547 0.0083009789 -0.0249029366
H 2.0360603917 0.7649909009 -0.0249029366
H 2.0360603917 -0.7483889432 -0.0249029366
6
Properties=species:S:1:pos:R:3 frame=22 source="TIP3P O-O LJ rigid-water VV" pbc="F F F"
O -1.4501848800 -0.0086962636 0.0260887907
H -0.4931848800 -0.0086962636 0.0260887907
H -1.6897985438 0.9178210283 0.0260887907
O 1.4501848800 0.0086962636 -0.0260887907
H 2.0360768170 0.7653861856 -0.0260887907
H 2.0360768170 -0.7479936585 -0.0260887907
6
Properties=species:S:1:pos:R:3 frame=23 source="TIP3P O-O LJ rigid-water VV" pbc="F F F"
O -1.4502020692 -0.0090915483 0.0272746448
H -0.4932020692 -0.0090915483 0.0272746448
H -1.6898157331 0.9174257436 0.0272746448
O 1.4502020692 0.0090915483 -0.0272746448
H 2.0360940062 0.7657814703 -0.0272746448
H 2.0360940062 -0.7475983738 -0.0272746448
6
Properties=species:S:1:pos:R:3 frame=24 source="TIP3P O-O LJ rigid-water VV" pbc="F F F"
O -1.4502200224 -0.0094868330 0.0284604989
H -0.4932200224 -0.0094868330 0.0284604989
H -1.6898336863 0.9170304589 0.0284604989
O 1.4502200224 0.0094868330 -0.0284604989
H 2.0361119594 0.7661767551 -0.0284604989
H 2.0361119594 -0.7472030891 -0.0284604989
