21
Properties=species:S:1:pos:R:3 frame=0 source="03b UKS reactive AIMD" pbc="F F F"
C -0.8289904917 -0.0024715304 -0.1397440954
C -0.0054119062 -0.1225430957 0.9995284072
C 1.3970833597 -0.0664442055 0.9294433039
C 2.0066811731 0.1397505115 -0.3122659516
C 1.2329739198 0.2995535425 -1.4663065154
C -0.1671986125 0.2382765982 -1.3623320746
C -2.3307000974 -0.1022863536 -0.0521535720
H 1.9932168935 -0.1778526311 1.8358399400
H 1.7006055707 0.4747334722 -2.4358293590
H -2.6432601432 -0.7819398169 0.7470516445
H -2.7606466031 -0.5202480444 -0.9680185220
H -2.7642064319 0.8860173307 0.1283228265
N -0.5855378661 -0.3036256904 2.3251879941
N 3.4717492166 0.2063087261 -0.4024509616
N -0.9223940416 0.4475883768 -2.5922075751
O -0.2156492114 -1.2956985963 2.9638096740
O -1.3855431853 0.5560146908 2.7117934250
O 4.1151729425 0.0688823714 0.6454717940
O 3.9668618432 0.3995106129 -1.5198404914
O -0.6611816037 -0.3021003474 -3.5401529067
O -1.7491428225 1.3667880623 -2.5956127675
21
Properties=species:S:1:pos:R:3 frame=1 source="03b UKS reactive AIMD" pbc="F F F"
C -0.8272487192 -0.0016365326 -0.1455053377
C -0.0036756705 -0.1217098328 0.9937798573
C 1.3988251313 -0.0656092077 0.9236820611
C 2.0084229452 0.1405855093 -0.3180271944
C 1.2347156920 0.3003885404 -1.4720677582
C -0.1654568403 0.2391115960 -1.3680933174
C -2.3289583252 -0.1014513558 -0.0579148149
H 1.9949586657 -0.1770176333 1.8300786972
H 1.7023473429 0.4755684700 -2.4415906018
H -2.6415183710 -0.7811048191 0.7412904017
H -2.7589048310 -0.5194130466 -0.9737797649
H -2.7624646597 0.8868523286 0.1225615837
N -0.5923906768 -0.3069116856 2.3478597884
N 3.4734909887 0.2071437240 -0.4082122044
N -0.9206522694 0.4484233746 -2.5979688179
O -0.2225067698 -1.2989860790 2.9864923525
O -1.3924007433 0.5527272077 2.7344761036
O 4.1169147147 0.0697173692 0.6397105511
O 3.9686036154 0.4003456107 -1.5256017342
O -0.6594398315 -0.3012653496 -3.5459141495
O -1.7474010503 1.3676230601 -2.6013740103
21
Properties=species:S:1:pos:R:3 frame=2 source="03b UKS reactive AIMD" pbc="F F F"
C -0.8257972341 -0.0009407023 -0.1503063620
C -0.0022533560 -0.1210231744 0.9890458905
C 1.4002765959 -0.0649133767 0.9188810260
C 2.0098744220 0.1412813408 -0.3228282301
C 1.2361671688 0.3010843719 -1.4768687939
C -0.1640053635 0.2398074275 -1.3728943531
C -2.3275068484 -0.1007555243 -0.0627158505
H 1.9964101425 -0.1763218018 1.8252776614
H 1.7037988197 0.4762643015 -2.4463916375
H -2.6400668942 -0.7804089876 0.7364893660
H -2.7574533541 -0.5187172151 -0.9785808005
H -2.7610131829 0.8875481601 0.1177605480
N -0.5980803018 -0.3096433882 2.3667045063
N 3.4749424656 0.2078395555 -0.4130132401
N -0.9192007926 0.4491192062 -2.6027698536
O -0.2282214041 -1.3017256416 3.0053945805
O -1.3981153700 0.5499876330 2.7533783332
O 4.1183661915 0.0704132007 0.6349095154
O 3.9700550922 0.4010414422 -1.5304027699
O -0.6579883547 -0.3005695180 -3.5507151852
O -1.7459495735 1.3683188916 -2.6061750460
21
Properties=species:S:1:pos:R:3 frame=3 source="03b UKS reactive AIMD" pbc="F F F"
C -0.8240553924 -0.0001057146 -0.1560675086
C -0.0006050692 -0.1202177145 0.9835004548
C 1.4020182652 -0.0640783829 0.9131197883
C 2.0116161942 0.1421163387 -0.3285894729
C 1.2379089410 0.3019193697 -1.4826300367
C -0.1622635913 0.2406424253 -1.3786555959
C -2.3257650762 -0.0999205265 -0.0684770934
H 1.9981519145 -0.1754868039 1.8195164184
H 1.7055405918 0.4770992994 -2.4521528803
H -2.6383251220 -0.7795739897 0.7307281232
H -2.7557115820 -0.5178822172 -0.9843420434
H -2.7592714107 0.8883831579 0.1119993051
N -0.6048576948 -0.3129055381 2.3892021074
N 3.4766842377 0.2086745533 -0.4187744829
N -0.9174590204 0.4499542040 -2.6085310965
O -0.2350789825 -1.3050130705 3.0280772244
O -1.4049728845 0.5467001030 2.7760609907
O 4.1201079636 0.0712481986 0.6291482726
O 3.9717968644 0.4018764401 -1.5361640127
O -0.6562465825 -0.2997345202 -3.5564764281
O -1.7442078013 1.3691538895 -2.6119362888
21
Properties=species:S:1:pos:R:3 frame=4 source="03b UKS reactive AIMD" pbc="F F F"
C -0.8226037081 0.0005900866 -0.1608682572
C 0.0006974366 -0.1195691504 0.9790445209
C 1.4034694357 -0.0633825637 0.9083187680
C 2.0130676710 0.1428121702 -0.3333905085
C 1.2393604178 0.3026152012 -1.4874310724
C -0.1608121146 0.2413382568 -1.3834566315
C -2.3243135993 -0.0992246949 -0.0732781291
H 1.9996033906 -0.1747909723 1.8147153816
H 1.7069920686 0.4777951309 -2.4569539160
H -2.6368736452 -0.7788781582 0.7259270875
H -2.7542601052 -0.5171863857 -0.9891430791
H -2.7578199339 0.8890789894 0.1071982694
N -0.6104445799 -0.3156045628 2.4078083460
N 3.4781357145 0.2093703848 -0.4235755186
N -0.9160075436 0.4506500355 -2.6133321321
O -0.2407936745 -1.3077524784 3.0469793528
O -1.4106873858 0.5439603937 2.7949631598
O 4.1215594405 0.0719440301 0.6243472369
O 3.9732483412 0.4025722716 -1.5409650484
O -0.6547951057 -0.2990386887 -3.5612774638
O -1.7427563245 1.3698497210 -2.6167373245
21
Properties=species:S:1:pos:R:3 frame=5 source="03b UKS reactive AIMD" pbc="F F F"
C -0.8208612646 0.0014249865 -0.1666285704
C 0.0021474005 -0.1188271337 0.9739616638
C 1.4052102195 -0.0625476054 0.9025575749
C 2.0148094429 0.1436471679 -0.3391517508
C 1.2411021900 0.3034501991 -1.4931923153
C -0.1590703427 0.2421732546 -1.3892178738
C -2.3225718264 -0.0983896971 -0.0790393720
H 2.0013451589 -0.1739559737 1.8089541329
H 1.7087338408 0.4786301287 -2.4627151589
H -2.6351318730 -0.7780431604 0.7201658446
H -2.7525183330 -0.5163513879 -0.9949043219
H -2.7560781618 0.8899139873 0.1014370266
N -0.6170519002 -0.3188122751 2.4299090858
N 3.4798774867 0.2102053827 -0.4293367615
N -0.9142657714 0.4514850333 -2.6190933750
O -0.2476514272 -1.3110394394 3.0696616952
O -1.4175445224 0.5406724577 2.8176456344
O 4.1233012126 0.0727790279 0.6185859941
O 3.9749901134 0.4034072694 -1.5467262912
O -0.6530533335 -0.2982036909 -3.5670387066
O -1.7410145523 1.3706847188 -2.6224985673
21
Properties=species:S:1:pos:R:3 frame=6 source="03b UKS reactive AIMD" pbc="F F F"
C -0.8194085669 0.0021206397 -0.1714279145
C 0.0032403715 -0.1182459923 0.9699968471
C 1.4066599030 -0.0618518458 0.8977566301
C 2.0162609190 0.1443429992 -0.3439527851
C 1.2425536668 0.3041460306 -1.4979933509
C -0.1576188666 0.2428690858 -1.3940189081
C -2.3211203476 -0.0976938654 -0.0838404078
H 2.0027966254 -0.1732601403 1.8041530816
H 1.7101853176 0.4793259602 -2.4675161946
H -2.6336803962 -0.7773473289 0.7153648089
H -2.7510668562 -0.5156555564 -0.9997053576
H -2.7546266849 0.8906098188 0.0966359909
N -0.6224590932 -0.3214534279 2.4480938533
N 3.4813289635 0.2109012142 -0.4341377971
N -0.9128142946 0.4521808649 -2.6238944107
O -0.2533664128 -1.3137780588 3.0885633153
O -1.4232583883 0.5379320661 2.8365474958
O 4.1247526894 0.0734748594 0.6137849584
O 3.9764415902 0.4041031009 -1.5515273269
O -0.6516018567 -0.2975078593 -3.5718397423
O -1.7395630755 1.3713805503 -2.6272996030
21
Properties=species:S:1:pos:R:3 frame=7 source="03b UKS reactive AIMD" pbc="F F F"
C -0.8176639535 0.0029552220 -0.1771852168
C 0.0043875445 -0.1176019629 0.9656270646
C 1.4083975106 -0.0610170151 0.8919956002
C 2.0180026890 0.1451779963 -0.3497140235
C 1.2442954389 0.3049810284 -1.5037545938
C -0.1558770969 0.2437040827 -1.3997801464
C -2.3193785691 -0.0968588672 -0.0896016510
H 2.0045383644 -0.1724251363 1.7983917882
H 1.7119270898 0.4801609581 -2.4732774374
H -2.6319386240 -0.7765123310 0.7096035661
H -2.7493250840 -0.5148205585 -1.0054666004
H -2.7528849128 0.8914448166 0.0908747481
N -0.6288067411 -0.3245769981 2.4695824052
N 3.4830707357 0.2117362120 -0.4398990400
N -0.9110725224 0.4530158627 -2.6296556535
O -0.2602247943 -1.3170633297 3.1112445672
O -1.4301141656 0.5346426713 2.8592293113
O 4.1264944616 0.0743098573 0.6080237155
O 3.9781833624 0.4049380988 -1.5572885698
O -0.6498600845 -0.2966728615 -3.5776009851
O -1.7378213034 1.3722155482 -2.6330608459
21
Properties=species:S:1:pos:R:3 frame=8 source="03b UKS reactive AIMD" pbc="F F F"
C -0.8162083318 0.0036504466 -0.1819804967
C 0.0051869741 -0.1171163322 0.9623566640
C 1.4098429225 -0.0603214274 0.8871948781
C 2.0194541616 0.1458738264 -0.3545150506
C 1.2457469158 0.3056768599 -1.5085556295
C -0.1544256249 0.2443999125 -1.4045811732
C -2.3179270801 -0.0961630348 -0.0944026874
H 2.0059897777 -0.1717292929 1.7935906560
H 1.7133785666 0.4808567896 -2.4780784731
H -2.6304871472 -0.7758164994 0.7048025303
H -2.7478736071 -0.5141247270 -1.0102676360
H -2.7514334359 0.8921406480 0.0860737124
N -0.6339621887 -0.3271360966 2.4871707285
N 3.4845222125 0.2124320435 -0.4447000757
N -0.9096210456 0.4537116942 -2.6344566892
O -0.2659406274 -1.3197996682 3.1301447134
O -1.4358262005 0.5319003158 2.8781302830
O 4.1279459384 0.0750056888 0.6032226798
O 3.9796348392 0.4056339303 -1.5620896055
O -0.6484086077 -0.2959770300 -3.5824020208
O -1.7363698266 1.3729113797 -2.6378618816
21
Properties=species:S:1:pos:R:3 frame=9 source="03b UKS reactive AIMD" pbc="F F F"
C -0.8144583953 0.0044842466 -0.1877303834
C 0.0059346767 -0.1166029617 0.9589359941
C 1.4115727658 -0.0594869103 0.8814342612
C 2.0211959231 0.1467088206 -0.3602762717
C 1.2474886879 0.3065118578 -1.5143168723
C -0.1526838649 0.2452349059 -1.4103423936
C -2.3161852770 -0.0953280350 -0.1001639320
H 2.0077313900 -0.1708942652 1.7878291702
H 1.7151203388 0.4816917874 -2.4838397159
H -2.6287453749 -0.7749815014 0.6990412873
H -2.7461318348 -0.5132897290 -1.0160288786
H -2.7496916636 0.8929756456 0.0803124695
N -0.6399672392 -0.3301473564 2.5078436208
N 3.4862639846 0.2132670414 -0.4504613185
N -0.9078792734 0.4545466920 -2.6402179320
O -0.2728005523 -1.3230807780 3.1528232714
O -1.4426786435 0.5286073480 2.9008104740
O 4.1296877106 0.0758406866 0.5974614370
O 3.9813766113 0.4064689281 -1.5678508483
O -0.6466668356 -0.2951420322 -3.5881632636
O -1.7346280544 1.3737463775 -2.6436231244
21
Properties=species:S:1:pos:R:3 frame=10 source="03b UKS reactive AIMD" pbc="F F F"
C -0.8127035002 0.0053173141 -0.1934733316
C 0.0064270804 -0.1161737253 0.9561256748
C 1.4132953852 -0.0586526866 0.8756740432
C 2.0229376735 0.1475438111 -0.3660374702
C 1.2492304600 0.3073468556 -1.5200781150
C -0.1509421176 0.2460698947 -1.4161035904
C -2.3144434417 -0.0944930329 -0.1059251785
H 2.0094728384 -0.1700592068 1.7820674350
H 1.7168621110 0.4825267852 -2.4896009587
H -2.6270036025 -0.7741465031 0.6932800439
H -2.7443900624 -0.5124547309 -1.0217901208
H -2.7479498912 0.8938106428 0.0745512265
N -0.6457533346 -0.3330862319 2.5279914540
N 3.4880057568 0.2141020392 -0.4562225613
N -0.9061375012 0.4553816898 -2.6459791748
O -0.2796619159 -1.3263579963 3.1754993010
O -1.4495279752 0.5253110522 2.9234891414
O 4.1314294828 0.0766756844 0.5917001942
O 3.9831183835 0.4073039259 -1.5736120911
O -0.6449250634 -0.2943070343 -3.5939245065
O -1.7328862822 1.3745813753 -2.6493843672
21
Properties=species:S:1:pos:R:3 frame=11 source="03b UKS reactive AIMD" pbc="F F F"
C -0.8112359104 0.0060107687 -0.1982518488
C 0.0066248804 -0.1158864055 0.9542938568
C 1.4147233595 -0.0579578083 0.8708742921
C 2.0243891178 0.1482396316 -0.3708384397
C 1.2506819368 0.3080426871 -1.5248791506
C -0.1494906780 0.2467657127 -1.4209045574
C -2.3129918707 -0.0937971952 -0.1107262197
H 2.0109238358 -0.1693632857 1.7772656704
H 1.7183135878 0.4832226168 -2.4944019944
H -2.6255521253 -0.7734506707 0.6884790071
H -2.7429385850 -0.5117588988 -1.0265911553
H -2.7464984138 0.8945064731 0.0697501906
N -0.6503927992 -0.3354747048 2.5443421252
N 3.4894572335 0.2147978707 -0.4610235970
N -0.9046860243 0.4560775213 -2.6507802104
O -0.2853812216 -1.3290849344 3.1943933345
O -1.4552324960 0.5225606621 2.9423864289
O 4.1328809596 0.0773715160 0.5868991585
O 3.9845698603 0.4079997575 -1.5784131268
O -0.6434735866 -0.2936112028 -3.5987255422
O -1.7314348054 1.3752772069 -2.6541854029
21
Properties=species:S:1:pos:R:3 frame=12 source="03b UKS reactive AIMD" pbc="F F F"
C -0.8094665718 0.0068416856 -0.2039744495
C 0.0065877347 -0.1156329342 0.9527569784
C 1.4164249288 -0.0571244478 0.8651153032
C 2.0261308232 0.1490746068 -0.3765995465
C 1.2524237088 0.3088776849 -1.5306403931
C -0.1477489824 0.2476006826 -1.4266656587
C -2.3112499049 -0.0929621845 -0.1164874738
H 2.0126646318 -0.1685281055 1.7715029436
H 1.7200553599 0.4840576146 -2.5001632373
H -2.6238103522 -0.7726156708 0.6827177618
H -2.7411968115 -0.5109238997 -1.0323523952
H -2.7447566404 0.8953414680 0.0639889473
N -0.6557247264 -0.3382622010 2.5633930393
N 3.4911990054 0.2156328685 -0.4667848398
N -0.9029442520 0.4569125191 -2.6565414530
O -0.2922467788 -1.3323507504 3.2170619136
O -1.4620727282 0.5192546595 2.9650606040
O 4.1346227317 0.0782065138 0.5811379157
O 3.9863116325 0.4088347553 -1.5841743697
O -0.6417318144 -0.2927762050 -3.6044867850
O -1.7296930332 1.3761122047 -2.6599466458
21
Properties=species:S:1:pos:R:3 frame=13 source="03b UKS reactive AIMD" pbc="F F F"
C -0.8079834008 0.0075328062 -0.2087309030
C 0.0063140043 -0.1155027965 0.9520630514
C 1.4178301685 -0.0564305083 0.8603169338
C 2.0275822094 0.1497704077 -0.3814003977
C 1.2538751853 0.3095735163 -1.5354414284
C -0.1462976097 0.2482964763 -1.4314665021
C -2.3097981657 -0.0922663356 -0.1212885248
H 2.0141147979 -0.1678320290 1.7666999152
H 1.7215068367 0.4847534461 -2.5049642729
H -2.6223588738 -0.7719198358 0.6779167221
H -2.7397453325 -0.5102280661 -1.0371534264
H -2.7433051615 0.8960372949 0.0591879107
N -0.6599597803 -0.3405152003 2.5787626061
N 3.4926504817 0.2163287000 -0.4715858755
N -0.9014927750 0.4576083506 -2.6613424882
O -0.2979706105 -1.3350653334 3.2359478393
O -1.4677673973 0.5164937821 2.9839529982
O 4.1360742086 0.0789023453 0.5763368800
O 3.9877631093 0.4095305868 -1.5889754054
O -0.6402803376 -0.2920803735 -3.6092878207
O -1.7282415564 1.3768080362 -2.6647476815
21
Properties=species:S:1:pos:R:3 frame=14 source="03b UKS reactive AIMD" pbc="F F F"
C -0.8061903796 0.0083601503 -0.2144197625
C 0.0056779938 -0.1154497750 0.9519761485
C 1.4194971141 -0.0555985895 0.8545601478
C 2.0293238101 0.1506053476 -0.3871612914
C 1.2556169568 0.3104085139 -1.5412026702
C -0.1445560347 0.2491314024 -1.4372273805
C -2.3080558977 -0.0914313049 -0.1270497966
H 2.0158541184 -0.1669965731 1.7609349454
H 1.7232486089 0.4855884439 -2.5107255157
H -2.6206170982 -0.7710848305 0.6721554705
H -2.7380035556 -0.5093930637 -1.0429146591
H -2.7415633849 0.8968722826 0.0534266660
N -0.6647780809 -0.3431297948 2.5965619639
N 3.4943922530 0.2171636978 -0.4773471183
N -0.8997510022 0.4584433483 -2.6671037302
O -0.3048430501 -1.3383122727 3.2586039677
O -1.4745925858 0.5131718050 3.0066196469
O 4.1378159807 0.0797373431 0.5705756371
O 3.9895048815 0.4103655846 -1.5947366482
O -0.6385385654 -0.2912453756 -3.6150490635
O -1.7264997842 1.3776430340 -2.6705089243
21
Properties=species:S:1:pos:R:3 frame=15 source="03b UKS reactive AIMD" pbc="F F F"
C -0.8046827230 0.0090475471 -0.2191410888
C 0.0048803738 -0.1154956780 0.9525546465
C 1.4208664570 -0.0549061586 0.8497641774
C 2.0307750699 0.1513011058 -0.3919618852
C 1.2570684327 0.3111043452 -1.5460037044
C -0.1431048080 0.2498271429 -1.4420279539
C -2.3066037941 -0.0907354318 -0.1318508688
H 2.0173025287 -0.1663001687 1.7561292483
H 1.7247000857 0.4862842754 -2.5155265513
H -2.6191656164 -0.7703889882 0.6673544221
H -2.7365520720 -0.5086972255 -1.0477156803
H -2.7401119016 0.8975680994 0.0486256276
N -0.6685638005 -0.3452308200 2.6108318892
N 3.4958437284 0.2178595293 -0.4821481539
N -0.8982995246 0.4591391796 -2.6719047646
O -0.3105740004 -1.3410072253 3.2774768708
O -1.4802716143 0.5103943665 3.0255041524
O 4.1392674575 0.0804331747 0.5657746014
O 3.9909563583 0.4110614162 -1.5995376839
O -0.6370870886 -0.2905495441 -3.6198500992
O -1.7250483074 1.3783388656 -2.6753099600
21
Properties=species:S:1:pos:R:3 frame=16 source="03b UKS reactive AIMD" pbc="F F F"
C -0.8028538394 0.0098693861 -0.2247780865
C 0.0035894783 -0.1156635374 0.9540630543
C 1.4224806309 -0.0540764810 0.8440111131
C 2.0325164557 0.1521359730 -0.3977223413
C 1.2588102029 0.3119393425 -1.5517649441
C -0.1413634817 0.2506619784 -1.4477883725
C -2.3048609083 -0.0899003603 -0.1376121764
H 2.0190389148 -0.1654641647 1.7503598191
H 1.7264418578 0.4871192732 -2.5212877940
H -2.6174238342 -0.7695539686 0.6615931536
H -2.7348102860 -0.5078622143 -1.0534768937
H -2.7383701164 0.8984030675 0.0428643794
N -0.6728203870 -0.3476545593 2.6272506725
N 3.4975854977 0.2186945270 -0.4879093965
N -0.8965577509 0.4599741769 -2.6776660048
O -0.3174568700 -1.3442252211 3.3001136703
O -1.4870737406 0.5070480496 3.0481590602
O 4.1410092297 0.0812681725 0.5600133586
O 3.9926981305 0.4118964140 -1.6052989267
O -0.6353453164 -0.2897145463 -3.6256113421
O -1.7233065352 1.3791738634 -2.6810712028
21
Properties=species:S:1:pos:R:3 frame=17 source="03b UKS reactive AIMD" pbc="F F F"
C -0.8013102771 0.0105512141 -0.2294470263
C 0.0022271996 -0.1159005678 0.9560209292
C 1.4237968973 -0.0533863305 0.8392191028
C 2.0339674680 0.1528316475 -0.4025224314
C 1.2602616771 0.3126351732 -1.5565659757
C -0.1399125417 0.2513576146 -1.4525884157
C -2.3034080963 -0.0892044404 -0.1424132898
H 2.0204840092 -0.1647671411 1.7455490838
H 1.7278933344 0.4878151047 -2.5260888294
H -2.6159723439 -0.7688581077 0.6567920834
H -2.7333587906 -0.5071663647 -1.0582778898
H -2.7369186220 0.8990988589 0.0380633364
N -0.6761217446 -0.3495902800 2.6403250725
N 3.4990369707 0.2193903583 -0.4927104320
N -0.8951062719 0.4606700079 -2.6824670369
O -0.3231982661 -1.3468909823 3.3189669352
O -1.4927295010 0.5042461429 3.0670315981
O 4.1424607065 0.0819640040 0.5552123229
O 3.9941496073 0.4125922455 -1.6100999624
O -0.6338938396 -0.2890187148 -3.6304123777
O -1.7218550584 1.3798696949 -2.6858722385
21
Properties=species:S:1:pos:R:3 frame=18 source="03b UKS reactive AIMD" pbc="F F F"
C -0.7994302897 0.0113650345 -0.2350087129
C 0.0002398738 -0.1163049597 0.9592351285
C 1.4253351056 -0.0525599591 0.8334720557
C 2.0357084507 0.1536663786 -0.4082820675
C 1.2620034442 0.3134701696 -1.5623272105
C -0.1381716829 0.2521922799 -1.4583479694
C -2.3016640623 -0.0883692929 -0.1481746641
H 2.0222151044 -0.1639301494 1.7397716174
H 1.7296351063 0.4886501024 -2.5318500717
H -2.6142305461 -0.7680230541 0.6510307750
H -2.7316169831 -0.5063313325 -1.0640390575
H -2.7351768165 0.8999337808 0.0323020797
N -0.6797808613 -0.3518092325 2.6552628960
N 3.5007787356 0.2202253558 -0.4984716744
N -0.8933644955 0.4615050045 -2.6882282729
O -0.3300960060 -1.3500670873 3.3415753191
O -1.4994982130 0.5008648328 3.0896691219
O 4.1442024787 0.0827990018 0.5494510800
O 3.9958913794 0.4134272433 -1.6158612052
O -0.6321520675 -0.2881837169 -3.6361736206
O -1.7201132862 1.3807046927 -2.6916334813
