6
Properties=species:S:1:pos:R:3 frame=0 source="03b UKS reactive AIMD" pbc="F F F"
Cl 0.0000000000 0.0000000000 0.0000000000
O 1.6400000000 0.0000000000 0.0000000000
H 1.8936426642 0.9466073098 0.0000000000
O -0.3649348536 1.3619554151 0.0000000000
O -0.3649348536 -0.6809777075 1.1794879883
O -0.3649348536 -0.6809777075 -1.1794879883
6
Properties=species:S:1:pos:R:3 frame=1 source="03b UKS reactive AIMD" pbc="F F F"
Cl -0.0229188502 -0.0053540833 0.0000000000
O 1.7529127004 0.0262749653 0.0000000000
H 2.0069310060 0.9728785497 0.0000000000
O -0.3880240410 1.3565997447 0.0000000000
O -0.3880240402 -0.6863332596 1.1794879185
O -0.3880240402 -0.6863332596 -1.1794879185
6
Properties=species:S:1:pos:R:3 frame=2 source="03b UKS reactive AIMD" pbc="F F F"
Cl -0.0450317256 -0.0106924803 0.0000000000
O 1.8640405811 0.0525251990 0.0000000000
H 2.1201759592 0.9989884770 0.0000000000
O -0.4111126850 1.3512420493 0.0000000000
O -0.4111126467 -0.6916877303 1.1794859756
O -0.4111126467 -0.6916877303 -1.1794859756
6
Properties=species:S:1:pos:R:3 frame=3 source="03b UKS reactive AIMD" pbc="F F F"
Cl -0.0652615333 -0.0158042973 0.0000000000
O 1.9687795474 0.0777967538 0.0000000000
H 2.2292066602 1.0235401704 0.0000000000
O -0.4333741750 1.3460661872 0.0000000000
O -0.4333738320 -0.6968457147 1.1794750002
O -0.4333738320 -0.6968457147 -1.1794750002
6
Properties=species:S:1:pos:R:3 frame=4 source="03b UKS reactive AIMD" pbc="F F F"
Cl -0.0850369250 -0.0210512140 0.0000000000
O 2.0747279420 0.1039539467 0.0000000000
H 2.3419536613 1.0478348219 0.0000000000
O -0.4564531512 1.3406727140 0.0000000000
O -0.4564514983 -0.7021799406 1.1794379961
O -0.4564514983 -0.7021799406 -1.1794379961
6
Properties=species:S:1:pos:R:3 frame=5 source="03b UKS reactive AIMD" pbc="F F F"
Cl -0.1036520873 -0.0262340958 0.0000000000
O 2.1780808814 0.1300374325 0.0000000000
H 2.4543542686 1.0709054288 0.0000000000
O -0.4795182558 1.3352284469 0.0000000000
O -0.4795128576 -0.7074842994 1.1793492757
O -0.4795128576 -0.7074842994 -1.1793492757
6
Properties=species:S:1:pos:R:3 frame=6 source="03b UKS reactive AIMD" pbc="F F F"
Cl -0.1212342340 -0.0313518024 0.0000000000
O 2.2790816826 0.1560084156 0.0000000000
H 2.5665278802 1.0932000055 0.0000000000
O -0.5025606351 1.3297019604 0.0000000000
O -0.5025468188 -0.7127390571 1.1791746906
O -0.5025468188 -0.7127390571 -1.1791746906
6
Properties=species:S:1:pos:R:3 frame=7 source="03b UKS reactive AIMD" pbc="F F F"
Cl -0.1373490363 -0.0362294700 0.0000000000
O 2.3745145150 0.1809239115 0.0000000000
H 2.6745741629 1.1143025893 0.0000000000
O -0.5247487356 1.3242610912 0.0000000000
O -0.5247195602 -0.7177372645 1.1788871427
O -0.5247195602 -0.7177372645 -1.1788871427
6
Properties=species:S:1:pos:R:3 frame=8 source="03b UKS reactive AIMD" pbc="F F F"
Cl -0.1533352031 -0.0412368875 0.0000000000
O 2.4717325173 0.2066461261 0.0000000000
H 2.7864378825 1.1356175094 0.0000000000
O -0.5477148210 1.3184650678 0.0000000000
O -0.5476586637 -0.7228241956 1.1784222041
O -0.5476586637 -0.7228241956 -1.1784222041
6
Properties=species:S:1:pos:R:3 frame=9 source="03b UKS reactive AIMD" pbc="F F F"
Cl -0.1687217185 -0.0462033788 0.0000000000
O 2.5674431610 0.2322892453 0.0000000000
H 2.8979511263 1.1559019110 0.0000000000
O -0.5706241808 1.3124736217 0.0000000000
O -0.5705257529 -0.7277867457 1.1777422236
O -0.5705257529 -0.7277867457 -1.1777422236
6
Properties=species:S:1:pos:R:3 frame=10 source="03b UKS reactive AIMD" pbc="F F F"
Cl -0.1836362159 -0.0511409153 0.0000000000
O 2.6618880978 0.2578752960 0.0000000000
H 3.0090436287 1.1750096082 0.0000000000
O -0.5934644497 1.3062487523 0.0000000000
O -0.5933042200 -0.7325990599 1.1768026479
O -0.5933042200 -0.7325990599 -1.1768026479
6
Properties=species:S:1:pos:R:3 frame=11 source="03b UKS reactive AIMD" pbc="F F F"
Cl -0.1981915007 -0.0560613281 0.0000000000
O 2.7552658885 0.2833940282 0.0000000000
H 3.1198352921 1.1933177214 0.0000000000
O -0.6162237446 1.2997558221 0.0000000000
O -0.6159780892 -0.7372374670 1.1755627588
O -0.6159780892 -0.7372374670 -1.1755627588
6
Properties=species:S:1:pos:R:3 frame=12 source="03b UKS reactive AIMD" pbc="F F F"
Cl -0.2119782321 -0.0607999527 0.0000000000
O 2.8444539384 0.3079233270 0.0000000000
H 3.2265381907 1.2106401028 0.0000000000
O -0.6380833775 1.2932131938 0.0000000000
O -0.6377295810 -0.7415266557 1.1740503656
O -0.6377295810 -0.7415266557 -1.1740503656
6
Properties=species:S:1:pos:R:3 frame=13 source="03b UKS reactive AIMD" pbc="F F F"
Cl -0.2260981378 -0.0657167718 0.0000000000
O 2.9362053606 0.3332926433 0.0000000000
H 3.3370453080 1.2282578795 0.0000000000
O -0.6606536112 1.2861137673 0.0000000000
O -0.6601581813 -0.7457693411 1.1721277744
O -0.6601581813 -0.7457693411 -1.1721277744
6
Properties=species:S:1:pos:R:3 frame=14 source="03b UKS reactive AIMD" pbc="F F F"
Cl -0.2401051811 -0.0706434310 0.0000000000
O 3.0273411464 0.3586297037 0.0000000000
H 3.4472089916 1.2451133032 0.0000000000
O -0.6831159824 1.2786788475 0.0000000000
O -0.6824471140 -0.7497932347 1.1698280779
O -0.6824471140 -0.7497932347 -1.1698280779
6
Properties=species:S:1:pos:R:3 frame=15 source="03b UKS reactive AIMD" pbc="F F F"
Cl -0.2540542911 -0.0755847767 0.0000000000
O 3.1179774280 0.3839622541 0.0000000000
H 3.5568833188 1.2609359415 0.0000000000
O -0.7054659261 1.2709015101 0.0000000000
O -0.7045912760 -0.7535948588 1.1671455241
O -0.7045912760 -0.7535948588 -1.1671455241
6
Properties=species:S:1:pos:R:3 frame=16 source="03b UKS reactive AIMD" pbc="F F F"
Cl -0.2674895648 -0.0803657903 0.0000000000
O 3.2049820669 0.4083807209 0.0000000000
H 3.6622649618 1.2754385251 0.0000000000
O -0.7269096614 1.2630797019 0.0000000000
O -0.7258067625 -0.7570532503 1.1642016436
O -0.7258067625 -0.7570532503 -1.1642016436
6
Properties=species:S:1:pos:R:3 frame=17 source="03b UKS reactive AIMD" pbc="F F F"
Cl -0.2814349506 -0.0853405847 0.0000000000
O 3.2948588371 0.4336732350 0.0000000000
H 3.7713802985 1.2901540808 0.0000000000
O -0.7490371588 1.2546452438 0.0000000000
O -0.7476689085 -0.7604343634 1.1607954080
O -0.7476689085 -0.7604343634 -1.1607954080
6
Properties=species:S:1:pos:R:3 frame=18 source="03b UKS reactive AIMD" pbc="F F F"
Cl -0.2954110244 -0.0903301212 0.0000000000
O 3.3844367029 0.4589332819 0.0000000000
H 3.8803905578 1.3046819380 0.0000000000
O -0.7710571055 1.2459024992 0.0000000000
O -0.7693980689 -0.7636228542 1.1570579628
O -0.7693980689 -0.7636228542 -1.1570579628
