3
Properties=species:S:1:pos:R:3 frame=0 pbc="F F F"
O 0.0000000000 0.0000000000 0.1190000000
H 0.0000000000 0.7137861877 -0.4429769721
H 0.0000000000 -0.7137861877 -0.4429769721
3
Properties=species:S:1:pos:R:3 frame=1 pbc="F F F"
O 0.0016589774 -0.0003433955 0.1194431829
H 0.0003932246 0.7290507559 -0.4309964768
H -0.0267252119 -0.7236002387 -0.4619918533
3
Properties=species:S:1:pos:R:3 frame=2 pbc="F F F"
O 0.0033239870 -0.0007473792 0.1201575082
H 0.0007747830 0.7472505423 -0.4214810245
H -0.0535345035 -0.7353878260 -0.4828453769
3
Properties=species:S:1:pos:R:3 frame=3 pbc="F F F"
O 0.0049946934 -0.0012665877 0.1210566803
H 0.0011245029 0.7677190105 -0.4140692711
H -0.0804023779 -0.7476151974 -0.5045291676
3
Properties=species:S:1:pos:R:3 frame=4 pbc="F F F"
O 0.0066638221 -0.0019449453 0.1220360534
H 0.0014185081 0.7895686602 -0.4082449094
H -0.1071894957 -0.7586976708 -0.5258985522
3
Properties=species:S:1:pos:R:3 frame=5 pbc="F F F"
O 0.0083177207 -0.0028124321 0.1229819822
H 0.0016335863 0.8117557168 -0.4033917278
H -0.1336559487 -0.7671156119 -0.5457659127
3
Properties=species:S:1:pos:R:3 frame=6 pbc="F F F"
O 0.0099379254 -0.0038829078 0.1237817677
H 0.0017504601 0.8331564800 -0.3988512317
H -0.1594893917 -0.7715253342 -0.5630009407
