3
Properties=species:S:1:pos:R:3 frame=0 pbc="F F F"
O 0.0000000000 0.0000000000 0.1190000000
H 0.0000000000 0.7137861877 -0.4429769721
H 0.0000000000 -0.7137861877 -0.4429769721
3
Properties=species:S:1:pos:R:3 frame=1 pbc="F F F"
O 0.0000691241 -0.0000143081 0.1190118621
H 0.0000163844 0.7143556444 -0.4424253753
H -0.0011135505 -0.7141285395 -0.4437168494
3
Properties=species:S:1:pos:R:3 frame=2 pbc="F F F"
O 0.0001382481 -0.0000286163 0.1190242985
H 0.0000327687 0.7149308894 -0.4418783359
H -0.0022271010 -0.7144766797 -0.4444612840
3
Properties=species:S:1:pos:R:3 frame=3 pbc="F F F"
O 0.0002073722 -0.0000429244 0.1190373091
H 0.0000491531 0.7155119230 -0.4413358539
H -0.0033406515 -0.7148306083 -0.4452102759
3
Properties=species:S:1:pos:R:3 frame=4 pbc="F F F"
O 0.0002764962 -0.0000572326 0.1190508940
H 0.0000655374 0.7160987449 -0.4407979292
H -0.0044542020 -0.7151903254 -0.4459638252
3
Properties=species:S:1:pos:R:3 frame=5 pbc="F F F"
O 0.0003456203 -0.0000715407 0.1190650531
H 0.0000819218 0.7166913553 -0.4402645618
H -0.0055677525 -0.7155558309 -0.4467219319
3
Properties=species:S:1:pos:R:3 frame=6 pbc="F F F"
O 0.0004147444 -0.0000858489 0.1190797864
H 0.0000983062 0.7172897541 -0.4397357517
H -0.0066813030 -0.7159271248 -0.4474845959
3
Properties=species:S:1:pos:R:3 frame=7 pbc="F F F"
O 0.0004838684 -0.0001001570 0.1190950940
H 0.0001146905 0.7178939414 -0.4392114990
H -0.0077948535 -0.7163042072 -0.4482518172
3
Properties=species:S:1:pos:R:3 frame=8 pbc="F F F"
O 0.0005529925 -0.0001144652 0.1191109759
H 0.0001310749 0.7185039171 -0.4386918037
H -0.0089084040 -0.7166870780 -0.4490235959
3
Properties=species:S:1:pos:R:3 frame=9 pbc="F F F"
O 0.0006221165 -0.0001287733 0.1191274319
H 0.0001474592 0.7191196812 -0.4381766657
H -0.0100219545 -0.7170757373 -0.4497999319
3
Properties=species:S:1:pos:R:3 frame=10 pbc="F F F"
O 0.0006912406 -0.0001430814 0.1191444623
H 0.0001638436 0.7197412338 -0.4376660850
H -0.0111355049 -0.7174701850 -0.4505808252
3
Properties=species:S:1:pos:R:3 frame=11 pbc="F F F"
O 0.0007603646 -0.0001573896 0.1191620669
H 0.0001802280 0.7203685748 -0.4371600617
H -0.0122490554 -0.7178704211 -0.4513662759
3
Properties=species:S:1:pos:R:3 frame=12 pbc="F F F"
O 0.0008294887 -0.0001716977 0.1191802457
H 0.0001966123 0.7210017043 -0.4366585957
H -0.0133626059 -0.7182764457 -0.4521562840
3
Properties=species:S:1:pos:R:3 frame=13 pbc="F F F"
O 0.0008986128 -0.0001860059 0.1191989988
H 0.0002129967 0.7216406222 -0.4361616871
H -0.0144761564 -0.7186882587 -0.4529508494
3
Properties=species:S:1:pos:R:3 frame=14 pbc="F F F"
O 0.0009677368 -0.0002003140 0.1192183261
H 0.0002293810 0.7222853285 -0.4356693358
H -0.0155897069 -0.7191058601 -0.4537499721
3
Properties=species:S:1:pos:R:3 frame=15 pbc="F F F"
O 0.0010368609 -0.0002146222 0.1192382277
H 0.0002457654 0.7229358233 -0.4351815419
H -0.0167032574 -0.7195292500 -0.4545536522
3
Properties=species:S:1:pos:R:3 frame=16 pbc="F F F"
O 0.0011059849 -0.0002289303 0.1192587035
H 0.0002621497 0.7235921065 -0.4346983053
H -0.0178168079 -0.7199584283 -0.4553618896
3
Properties=species:S:1:pos:R:3 frame=17 pbc="F F F"
O 0.0011751090 -0.0002432385 0.1192797536
H 0.0002785341 0.7242541781 -0.4342196260
H -0.0189303584 -0.7203933951 -0.4561746844
3
Properties=species:S:1:pos:R:3 frame=18 pbc="F F F"
O 0.0012442331 -0.0002575466 0.1193013779
H 0.0002949185 0.7249220382 -0.4337455041
H -0.0200439089 -0.7208341503 -0.4569920365
3
Properties=species:S:1:pos:R:3 frame=19 pbc="F F F"
O 0.0013133571 -0.0002718547 0.1193235764
H 0.0003113028 0.7255956867 -0.4332759395
H -0.0211574594 -0.7212806939 -0.4578139459
3
Properties=species:S:1:pos:R:3 frame=20 pbc="F F F"
O 0.0013824812 -0.0002861629 0.1193463492
H 0.0003276872 0.7262751237 -0.4328109323
H -0.0222710099 -0.7217330260 -0.4586404127
3
Properties=species:S:1:pos:R:3 frame=21 pbc="F F F"
O 0.0014516052 -0.0003004710 0.1193696963
H 0.0003440715 0.7269603491 -0.4323504824
H -0.0233845604 -0.7221911465 -0.4594714368
3
Properties=species:S:1:pos:R:3 frame=22 pbc="F F F"
O 0.0015207293 -0.0003147792 0.1193936176
H 0.0003604559 0.7276513629 -0.4318945898
H -0.0244981109 -0.7226550555 -0.4603070183
3
Properties=species:S:1:pos:R:3 frame=23 pbc="F F F"
O 0.0015898534 -0.0003290873 0.1194181131
H 0.0003768403 0.7283481652 -0.4314432546
H -0.0256116614 -0.7231247528 -0.4611471571
3
Properties=species:S:1:pos:R:3 frame=24 pbc="F F F"
O 0.0016589774 -0.0003433955 0.1194431829
H 0.0003932246 0.7290507559 -0.4309964768
H -0.0267252119 -0.7236002387 -0.4619918533
