192
Lattice="12.429633119082435 0.0 0.0 0.0 12.429633119082435 0.0 0.0 0.0 12.429633119082435" Properties=species:S:1:pos:R:3 pbc="T T T"
O        0.07638047       0.00287602      12.41819874
H        0.17495305       0.53587347       0.77750732
H        0.56941205       0.47447549      11.74682281
O       12.27162331      12.39333159       3.23318613
H       11.79291365       0.68932362       3.63385687
H        0.74948161       0.09383355       3.50842425
O        0.08164048      12.34677416       6.33261168
H        0.22586312      11.40389180       6.41263992
H        0.95831649       0.29872493       6.37805113
O        0.14188292       0.13682734       9.48472814
H        0.53494714       0.29182775      10.34362699
H        0.61073113       0.72825689       8.89598008
O        0.14087366       3.11395663       0.14437275
H        0.26315661       2.27935394       0.59682945
H        0.07395512       3.76038052       0.84714577
O        0.07535749       3.22432257       3.21309247
H       12.12879885       3.55244652       4.02982149
H       12.35730181       2.27907571       3.24355921
O        0.01861954       3.06399212       6.25524226
H       11.72731880       3.62554390       6.54010330
H       12.08582242       2.17833902       6.27748501
O        0.01754234       3.10375111       9.24330634
H       11.76688546       3.06663710       8.57095233
H       12.07513284       2.63050829       9.98752228
O       12.24256192       6.18838377       0.20091573
H        0.05526252       5.46995914       0.78518643
H        0.38890188       6.90932622       0.45533437
O        0.09006548       6.18294044       3.29637668
H        0.80199213       5.84629773       3.84049429
H       12.05454332       6.79805905       3.86337889
O       12.38685030       6.27674683       6.27790908
H       11.55988278       6.11228873       6.73102065
H       12.12830077       6.54121890       5.39505093
O        0.04206452       6.10206195       9.40133541
H       12.24644612       6.59710986      10.18900360
H        0.57467253       5.37335430       9.71999778
O        0.06160318       9.40568704       0.17886700
H        0.85061335       9.86343639      12.31839614
H       11.91194528      10.10055978       0.49160590
O       12.39740451       9.42898771       3.28187566
H       12.39354690       8.49055708       3.47046228
H        0.48368075       9.51045593       2.47973334
O       12.32837383       9.36888133       6.40197713
H        0.82739469       9.43511469       6.17961085
H       12.18546725      10.06332485       7.04506169
O        0.05425770       9.23272056       9.40765982
H       12.01057541       9.32345173       8.58063370
H       12.16420343       9.95550282       9.94767614
O        3.17726181      12.21672386       0.06050571
H        2.23307320      12.08138367      12.40999687
H        3.51223574      12.10387516      11.60059429
O        3.24180675       0.13307053       3.16119457
H        3.34063570       0.90353267       2.60186215
H        4.13265197      12.35490127       3.44305412
O        3.16773227       0.12608388       6.44451796
H        2.70656038       0.26212768       5.61684387
H        3.85042133      11.91773222       6.23680924
O        3.18986429       0.00003983       9.34102552
H        3.13909963      11.47539119       9.39580789
H        3.94334095       0.23184625       9.88395327
O        3.20373582       2.98381724       0.18167538
H        3.08806860       2.61081869       1.05558900
H        3.42819036       2.23521078      12.05864191
O        3.17351352       3.21170627       3.16537618
H        3.67468889       3.69416285       2.50788798
H        3.81410164       2.99201929       3.84184963
O        3.15856118       3.11294722       6.33608288
H        2.80870207       2.24970339       6.11553688
H        2.38741041       3.63506274       6.55733777
O        3.14195307       3.10514631       9.32543265
H        3.68991581       3.15943253       8.54247564
H        3.33423299       3.90847081       9.80909578
O        3.05571021       6.20244045       0.04723552
H        2.11543022       6.33479104      12.35608490
H        3.35812769       5.85104644      11.63943342
O        3.24540119       6.22763532       3.27329539
H        2.43625793       5.99292881       3.72764315
H        3.50878205       5.42544070       2.82235620
O        3.34064242       6.27647393       6.33863255
H        3.26986504       7.13727276       5.92602161
H        3.85946189       5.75762355       5.72393549
O        3.22360295       6.27751591       9.52710141
H        3.04277652       6.72688274       8.70150884
H        3.18561641       6.96764708      10.18930066
O        3.28804149       9.35929907       0.05597184
H        4.22871668       9.35438954      12.30857976
H        3.21895482       9.17014743       0.99174987
O        2.96577428       9.28671456       3.14666523
H        3.74247373       9.16089844       2.60155963
H        2.43747116       8.50281118       2.99625528
O        3.06743557       9.30854750       6.32396465
H        2.93692546       8.70666980       7.05672804
H        4.01728285       9.41009670       6.26305701
O        3.05834681       9.37898170       9.44583030
H        3.63353123       9.77080490      10.10299793
H        2.65900380      10.12615656       9.00031181
O        6.26618838       0.09497167       0.13157459
H        6.16213578       0.90792074       0.62606292
H        7.09777764      12.16244630       0.43740522
O        6.46406383       0.14754298       3.34870218
H        6.24909930       0.77426688       2.65787713
H        5.92364774      11.81133644       3.15460967
O        6.21904479      12.39299597       6.36275380
H        5.29566385       0.21315728       6.32808061
H        6.22081399      11.54027785       6.79761068
O        6.26176296       0.09293155       9.52824258
H        5.92744245       0.14179136       8.63265654
H        6.78896872       0.88520308       9.63115877
O        6.30568606       3.29136089       0.09726100
H        5.40611184       3.53395405      12.30747070
H        6.43382257       2.44043006      12.10769297
O        6.27179852       3.17059798       3.18867233
H        7.11120952       2.97667707       2.77152046
H        5.63771247       3.15245493       2.47184771
O        6.32545094       3.02459377       6.27614474
H        7.14382546       2.86349381       6.74576351
H        5.79233083       3.53034567       6.88952049
O        6.22387752       3.19474903       9.44798013
H        5.54462372       3.44547641      10.07406471
H        6.12271374       2.24791525       9.35049413
O        6.23475151       6.14118276       0.09377371
H        6.49350460       5.29872308      12.14985581
H        5.83259947       6.61355834      11.79445766
O        6.27077841       6.34017898       3.14294148
H        6.36543307       6.18813125       4.08323602
H        6.71971036       5.60037404       2.73381976
O        6.21481656       6.21481656       6.21481656
H        5.98373879       6.91151346       6.82918480
H        6.79439123       5.63826024       6.71272001
O        6.19746760       6.31520038       9.60912153
H        5.81882714       6.73367289       8.83598248
H        7.12749613       6.53852578       9.57164427
O        6.19993126       9.34311351       0.13803669
H        6.95986911       9.89941874       0.30906531
H        6.24366018       9.15891161      11.62937920
O        6.28086319       9.31669061       3.13002180
H        5.59026536       9.95699853       3.30122996
H        6.79367596       9.70112162       2.41905928
O        6.31725212       9.33953604       6.40121779
H        6.53819434      10.23992275       6.63937769
H        5.71097732       9.05255380       7.08408227
O        6.31358744       9.39678646       9.28575814
H        5.82182237       8.66388518       8.91527917
H        5.95703551      10.17027507       8.84893102
O        9.29265845       0.12151182       0.14393155
H        8.82346874       0.61099178       0.81958103
H       10.20791182       0.14390892       0.42329057
O        9.33272665      12.33757678       3.27280440
H        8.70165643       0.42225954       3.77625390
H        9.30552807      11.46762823       3.67115298
O        9.36631514       0.02577666       6.39295829
H       10.31907697      12.36465739       6.37744264
H        9.04023411      11.62088194       6.05611072
O        9.39473603       0.19316101       9.42418098
H        9.42472115       0.47443775      10.33862951
H       10.31319305       0.09581311       9.17280095
O        9.29908954       2.94980464       0.21859983
H        8.45447423       3.23011994       0.57113373
H        9.40837704       2.05495293       0.54035827
O        9.29256796       3.08179907       3.19133471
H       10.10352948       2.69637347       2.85964153
H        9.38559934       3.05404064       4.14359858
O        9.40544782       3.06027754       6.34446964
H        9.08418163       3.64832354       5.66093341
H       10.12981697       3.53677911       6.75001548
O        9.37897855       3.16928970       9.36518929
H       10.32877002       3.18515534       9.48298696
H        9.02580914       3.26877940      10.24927356
O        9.50878525       6.17859494       0.10298599
H        9.47549925       5.45728812       0.73134923
H        8.87256550       5.93932048      11.85867251
O        9.25916328       6.25727180       3.12001870
H        8.68845341       6.97179964       3.40281200
H        9.60447239       6.54593266       2.27522975
O        9.40753889       6.11219116       6.29687940
H        9.23973216       5.18100583       6.15208083
H       10.29040102       6.25296621       5.95487255
O        9.38329867       6.20153273       9.36230670
H        8.78309943       6.93965690       9.25664008
H        9.24572947       5.66654550       8.58058091
O        9.27338835       9.24721186       0.08312795
H        9.08970339       9.86383804      11.80405533
H        9.82290143       9.73939018       0.69306870
O        9.46381573       9.45176833       3.38838579
H       10.21369126       8.97346224       3.74213969
H        9.55466968       9.37219155       2.43883593
O        9.36587819       9.31461455       6.36696130
H       10.27688109       9.35912741       6.07657509
H        9.24714513       8.40684010       6.64638902
O        9.28185688       9.36411522       9.40050533
H        9.47136731       8.44639438       9.59571314
H        8.45741354       9.34084759       8.91472387
192
Lattice="12.429633119082435 0.0 0.0 0.0 12.429633119082435 0.0 0.0 0.0 12.429633119082435" Properties=species:S:1:pos:R:3 pbc="T T T"
O        0.07514448       0.00776455      12.42155902
H        0.17444628       0.53358378       0.77522082
H        0.56642027       0.47397223      11.74561339
O       12.27419032      12.39158858       3.22890702
H       11.79064898       0.69268127       3.64483775
H        0.75545114       0.09277164       3.50519432
O        0.08441284      12.34835297       6.32897243
H        0.22928532      11.41142497       6.40180652
H        0.95759764       0.30630424       6.37797301
O        0.13557654       0.13606605       9.48003029
H        0.53317384       0.29790334      10.34680800
H        0.60782476       0.73495651       8.90151470
O        0.13751194       3.10752803       0.12966811
H        0.25490454       2.27402013       0.60139501
H        0.06855463       3.74694478       0.85429224
O        0.07684828       3.23247890       3.21748985
H       12.12562797       3.55334888       4.02923790
H       12.35488781       2.27335103       3.23708588
O        0.02264156       3.06151828       6.25406917
H       11.73102557       3.62732327       6.53887762
H       12.08188876       2.17421374       6.26893258
O        0.01597436       3.09883391       9.24395586
H       11.77525573       3.06736964       8.57672651
H       12.07370722       2.63276731       9.98435454
O       12.25102207       6.19555452       0.19203368
H        0.05659219       5.47421532       0.78431758
H        0.38672278       6.91477179       0.45558185
O        0.08978731       6.18900259       3.29058642
H        0.80213464       5.84590863       3.83845390
H       12.06025228       6.79856188       3.85854378
O       12.37845199       6.27433507       6.27636666
H       11.56225050       6.12113528       6.74041038
H       12.13630013       6.53809181       5.39594185
O        0.05158316       6.10024050       9.40924497
H       12.24437276       6.59493797      10.18327281
H        0.57364440       5.37123367       9.71899046
O        0.06244559       9.40592502       0.17448185
H        0.84498501       9.85856978      12.32034452
H       11.90706593      10.10735527       0.48482842
O       12.40331375       9.42833236       3.28015023
H       12.39249752       8.48382180       3.46813323
H        0.48011708       9.50142255       2.47029861
O       12.33205988       9.36934366       6.40018251
H        0.82392478       9.43474268       6.18596768
H       12.18663968      10.06285058       7.04777724
O        0.05681669       9.23342273       9.41065530
H       12.00886587       9.32141835       8.58013606
H       12.16165021       9.96292734       9.94315720
O        3.17108886      12.22249667       0.05758101
H        2.24537285      12.07841736      12.41320991
H        3.51949851      12.09507260      11.59482257
O        3.24028030       0.13225138       3.16920302
H        3.34149982       0.90987550       2.60509638
H        4.14003884      12.34964751       3.43960902
O        3.17607235       0.12265208       6.44473598
H        2.70351517       0.25911902       5.61669952
H        3.84640438      11.92662035       6.23653222
O        3.19190551       0.00211157       9.34237783
H        3.13503668      11.47458137       9.39841456
H        3.94551080       0.23632680       9.88729305
O        3.20421349       2.98674477       0.18319422
H        3.08368781       2.61045169       1.05055266
H        3.43076565       2.23604107      12.05246559
O        3.18451061       3.20905262       3.16354492
H        3.67389138       3.68402489       2.51094230
H        3.81448002       2.98806271       3.82883313
O        3.15530477       3.11862654       6.33218503
H        2.80553957       2.24328480       6.12157839
H        2.39475445       3.63847481       6.55070256
O        3.14483516       3.10207027       9.33278679
H        3.69014210       3.16179382       8.53909755
H        3.33188491       3.91222148       9.81663730
O        3.06409670       6.21315396       0.04479199
H        2.11894294       6.33504765      12.35297544
H        3.35261218       5.84979147      11.64234152
O        3.24856397       6.22764655       3.27732914
H        2.43951975       5.99285562       3.72738178
H        3.52032928       5.43049174       2.82539209
O        3.34060971       6.27787984       6.34138401
H        3.27084983       7.14254412       5.92625421
H        3.86590178       5.75777948       5.71578384
O        3.22425919       6.27109342       9.52931592
H        3.04043771       6.72283020       8.69725052
H        3.18797403       6.97079482      10.19425211
O        3.29208830       9.35343469       0.06010764
H        4.23079328       9.35416569      12.31253177
H        3.21378678       9.16820956       0.98212246
O        2.96188163       9.28173495       3.14272797
H        3.74334798       9.15709103       2.59966850
H        2.43383676       8.50752787       3.00211920
O        3.06731518       9.30458753       6.32123042
H        2.93603739       8.71247995       7.04883403
H        4.01031019       9.40551162       6.25983953
O        3.06092854       9.37393419       9.44988536
H        3.64087227       9.77146315      10.09549991
H        2.65715934      10.12033254       8.99503295
O        6.26981449       0.09888341       0.13467318
H        6.16878521       0.90445771       0.61792355
H        7.10101020      12.16212715       0.43805237
O        6.46575572       0.14275269       3.34877828
H        6.25339082       0.77861957       2.65730931
H        5.92191320      11.81067187       3.14888752
O        6.21821579      12.38831202       6.36497311
H        5.28935301       0.21254656       6.31499715
H        6.22263458      11.53778911       6.80111090
O        6.26209322       0.09452028       9.52753577
H        5.93006526       0.13995846       8.62501829
H        6.78517285       0.88939082       9.62840465
O        6.30118828       3.29662338       0.09194055
H        5.40250333       3.54032307      12.30441085
H        6.43348318       2.43978434      12.10060581
O        6.26805961       3.16688453       3.19252564
H        7.10894603       2.97460907       2.77288735
H        5.63885178       3.14880546       2.47070031
O        6.31507224       3.02568893       6.26612229
H        7.12924641       2.86313758       6.74545443
H        5.79423306       3.53338703       6.88613021
O        6.21977036       3.20038330       9.44401888
H        5.54257758       3.45330343      10.07254997
H        6.11768965       2.24518205       9.35266796
O        6.24014881       6.13972637       0.08782140
H        6.49712064       5.29667605      12.14424883
H        5.83229522       6.61016631      11.78908390
O        6.26333119       6.34033873       3.14609996
H        6.36483220       6.18616590       4.07717093
H        6.71646194       5.60510094       2.72901328
O        6.21398493       6.21063539       6.22347106
H        5.98696717       6.91122659       6.83027620
H        6.79488444       5.63758048       6.70972927
O        6.20277894       6.31412037       9.61388965
H        5.81779632       6.73049560       8.83183563
H        7.11725128       6.53447030       9.57101751
O        6.19669095       9.33763820       0.14014304
H        6.96789376       9.90132526       0.30555642
H        6.24041566       9.15891124      11.63129513
O        6.27714970       9.31925720       3.13410810
H        5.58940960       9.94001013       3.29822943
H        6.79422885       9.70157781       2.41565635
O        6.32257176       9.34387747       6.40322857
H        6.53679579      10.23613775       6.63597907
H        5.71396174       9.05466105       7.07787169
O        6.30975035       9.39652302       9.28539680
H        5.82673646       8.66523640       8.92617387
H        5.95339613      10.17844212       8.84831686
O        9.28821591       0.11305089       0.14563076
H        8.82259364       0.59691009       0.82008339
H       10.20992109       0.14032348       0.41951898
O        9.33177948      12.33489250       3.27994445
H        8.69473844       0.42225048       3.78277361
H        9.30273652      11.46752676       3.66350541
O        9.36303603       0.02839199       6.39630119
H       10.32048824      12.36944153       6.38065580
H        9.04477047      11.62628471       6.05336385
O        9.39750800       0.19893965       9.42738686
H        9.42234237       0.48297489      10.33591975
H       10.32802352       0.09128423       9.17091339
O        9.30068506       2.94869077       0.22007573
H        8.45839874       3.23107812       0.56817560
H        9.40237675       2.05598561       0.53995104
O        9.29685221       3.08027007       3.19890577
H       10.10542780       2.69934263       2.86140301
H        9.38234462       3.04525633       4.14241121
O        9.40198914       3.06045370       6.34483673
H        9.09052491       3.64296369       5.66014175
H       10.13952768       3.52794148       6.74975674
O        9.37596801       3.17500840       9.36907512
H       10.33385561       3.18318216       9.48032691
H        9.02647323       3.26164303      10.24948165
O        9.50415234       6.17687691       0.10113058
H        9.47091658       5.46024576       0.73416937
H        8.86738358       5.93486701      11.84711465
O        9.26472099       6.26031117       3.11847855
H        8.68527993       6.97237340       3.39859580
H        9.60408542       6.54302816       2.28112244
O        9.39907943       6.12036262       6.30687375
H        9.24485984       5.17393174       6.14597048
H       10.28834404       6.25823302       5.95612601
O        9.38091169       6.19514150       9.35605469
H        8.78283347       6.93746596       9.25332106
H        9.24631126       5.66156861       8.57972380
O        9.27285320       9.25056963       0.08614570
H        9.09302719       9.85916092      11.80333304
H        9.81812382       9.73630839       0.68696927
O        9.46003809       9.45785340       3.38082686
H       10.21105112       8.96526533       3.73895783
H        9.55294916       9.37220303       2.43873027
O        9.35635211       9.31335855       6.36541464
H       10.27981362       9.35804457       6.07524831
H        9.24389283       8.40489288       6.65512448
O        9.28436464       9.35896284       9.39632286
H        9.47049291       8.43790175       9.58934793
H        8.44895480       9.33042704       8.92403784
