21
2,4,6-TNT PBE0/def2-SVP geometry; C2-N2 selected for dissociation
C -0.8270216509 0.2965487021 -0.1732681726
C -0.1340115258 -0.2077654875 0.9453666043
C 1.2121235426 -0.5488134411 0.9345660189
C 1.9278183008 -0.3597285483 -0.2352227889
C 1.3225107469 0.1339140119 -1.3781255252
C -0.0257695837 0.4615094386 -1.3207738802
C -2.2984373185 0.5767682342 -0.1605236358
H 1.6915705818 -0.9592871969 1.8231802210
H 1.8885661040 0.2582565754 -2.3012221866
H -2.8174126989 -0.0630651541 0.5607435100
H -2.7356663241 0.4449691625 -1.1556890659
H -2.4821244503 1.6191851790 0.1392837102
N -0.8166437604 -0.4042894200 2.2380102147
N 3.3593340295 -0.7009379685 -0.2677032369
N -0.5863806404 1.0153860283 -2.5675166389
O -0.4347927342 -1.3249764653 2.9208721038
O -1.6839174383 0.3846991304 2.5343250127
O 3.8422618613 -1.1315768867 0.7525772284
O 3.9403420517 -0.5242595113 -1.3121608243
O -0.1210611626 0.6016317386 -3.6028654843
O -1.4441053573 1.8616205020 -2.4643410561
