17
Properties=species:S:1:pos:R:3 pbc="F F F"
O        6.21481656       6.21481656       6.21481656
H        5.98373879       6.91151346       6.82918480
H        6.79439123       5.63826024       6.71272001
H        6.36543307       6.18813125       4.08323602
H        3.85946189       5.75762355       5.72393549
H        5.81882714       6.73367289       8.83598248
H        5.79233083       3.53034567       6.88952049
O        3.34064242       6.27647393       6.33863255
H        5.71097732       9.05255380       7.08408227
O        6.27077841       6.34017898       3.14294148
H        3.26986504       7.13727276       5.92602161
O        6.31725212       9.33953604       6.40121779
O        6.32545094       3.02459377       6.27614474
O        9.40753889       6.11219116       6.29687940
H        9.23973216       5.18100583       6.15208083
O        6.19746760       6.31520038       9.60912153
H        7.12749613       6.53852578       9.57164427
17
Properties=species:S:1:pos:R:3 pbc="F F F"
O        6.21481656       6.21481656       6.21481656
H        5.98373879       6.91151346       6.82918480
H        6.79439123       5.63826024       6.71272001
H        6.36543307       6.18813125       4.08323602
H        3.85946189       5.75762355       5.72393549
H        5.81882714       6.73367289       8.83598248
H        5.79233083       3.53034567       6.88952049
O        3.34064242       6.27647393       6.33863255
H        5.71097732       9.05255380       7.08408227
O        6.27077841       6.34017898       3.14294148
H        3.26986504       7.13727276       5.92602161
O        6.31725212       9.33953604       6.40121779
O        6.32545094       3.02459377       6.27614474
O        9.40753889       6.11219116       6.29687940
H        9.23973216       5.18100583       6.15208083
O        6.19746760       6.31520038       9.60912153
H        7.12749613       6.53852578       9.57164427
17
Properties=species:S:1:pos:R:3 pbc="F F F"
O        6.21481656       6.21481656       6.21481656
H        5.98373879       6.91151346       6.82918480
H        6.79439123       5.63826024       6.71272001
H        6.36543307       6.18813125       4.08323602
H        3.85946189       5.75762355       5.72393549
H        5.81882714       6.73367289       8.83598248
H        5.79233083       3.53034567       6.88952049
O        3.34064242       6.27647393       6.33863255
H        5.71097732       9.05255380       7.08408227
O        6.27077841       6.34017898       3.14294148
H        3.26986504       7.13727276       5.92602161
O        6.31725212       9.33953604       6.40121779
O        6.32545094       3.02459377       6.27614474
O        9.40753889       6.11219116       6.29687940
H        9.23973216       5.18100583       6.15208083
O        6.19746760       6.31520038       9.60912153
H        7.12749613       6.53852578       9.57164427
17
Properties=species:S:1:pos:R:3 pbc="F F F"
O        6.21481656       6.21481656       6.21481656
H        5.98373879       6.91151346       6.82918480
H        6.79439123       5.63826024       6.71272001
H        6.36543307       6.18813125       4.08323602
H        3.85946189       5.75762355       5.72393549
H        5.81882714       6.73367289       8.83598248
H        5.79233083       3.53034567       6.88952049
O        3.34064242       6.27647393       6.33863255
H        5.71097732       9.05255380       7.08408227
O        6.27077841       6.34017898       3.14294148
H        3.26986504       7.13727276       5.92602161
O        6.31725212       9.33953604       6.40121779
O        6.32545094       3.02459377       6.27614474
O        9.40753889       6.11219116       6.29687940
H        9.23973216       5.18100583       6.15208083
O        6.19746760       6.31520038       9.60912153
H        7.12749613       6.53852578       9.57164427
17
Properties=species:S:1:pos:R:3 pbc="F F F"
O        6.21481656       6.21481656       6.21481656
H        5.98373879       6.91151346       6.82918480
H        6.79439123       5.63826024       6.71272001
H        6.36543307       6.18813125       4.08323602
H        3.85946189       5.75762355       5.72393549
H        5.81882714       6.73367289       8.83598248
H        5.79233083       3.53034567       6.88952049
O        3.34064242       6.27647393       6.33863255
H        5.71097732       9.05255380       7.08408227
O        6.27077841       6.34017898       3.14294148
H        3.26986504       7.13727276       5.92602161
O        6.31725212       9.33953604       6.40121779
O        6.32545094       3.02459377       6.27614474
O        9.40753889       6.11219116       6.29687940
H        9.23973216       5.18100583       6.15208083
O        6.19746760       6.31520038       9.60912153
H        7.12749613       6.53852578       9.57164427
17
Properties=species:S:1:pos:R:3 pbc="F F F"
O        6.21481656       6.21481656       6.21481656
H        5.98373879       6.91151346       6.82918480
H        6.79439123       5.63826024       6.71272001
H        6.36543307       6.18813125       4.08323602
H        3.85946189       5.75762355       5.72393549
H        5.81882714       6.73367289       8.83598248
H        5.79233083       3.53034567       6.88952049
O        3.34064242       6.27647393       6.33863255
H        5.71097732       9.05255380       7.08408227
O        6.27077841       6.34017898       3.14294148
H        3.26986504       7.13727276       5.92602161
O        6.31725212       9.33953604       6.40121779
O        6.32545094       3.02459377       6.27614474
O        9.40753889       6.11219116       6.29687940
H        9.23973216       5.18100583       6.15208083
O        6.19746760       6.31520038       9.60912153
H        7.12749613       6.53852578       9.57164427
