189
Properties=species:S:1:pos:R:3 pbc="F F F"
O        0.00000000       0.00000000       0.00000000
O        6.05680675       6.17851503      -2.98163043
H        5.57809709       6.90414018      -2.58095969
H        6.96429817       6.30865011      -2.70639231
O       -6.13317608       6.13195760       0.11779512
H       -5.98895344       5.18907524       0.19782336
H       -5.25650007       6.51354149       0.16323457
O       -6.07293364      -6.07798922       3.26991158
H       -5.67986942      -5.92298881       4.12881043
H       -5.60408543      -5.48655967       2.68116352
O       -6.07394290      -3.10085992      -6.07044381
H       -5.95165995      -3.93546262      -5.61798711
H       -6.14086144      -2.45443604      -5.36767079
O       -6.13945907      -2.99049398      -3.00172409
H       -6.51565082      -2.66237004      -2.18499507
H       -6.28714786      -3.93574085      -2.97125735
O       -6.19619702      -3.15082444       0.04042570
H       -6.91713087      -2.58927266       0.32528674
H       -6.55862726      -4.03647754       0.06266845
O       -6.19727422      -3.11106545       3.02848978
H       -6.87756422      -3.14817946       2.35613577
H       -6.56931684      -3.58430827       3.77270572
O        6.02774536      -0.02643279      -6.01390083
H        6.27007908      -0.74485742      -5.42963013
H        6.60371844       0.69450966      -5.75948219
O       -6.12475108      -0.03187612      -2.91843987
H       -5.41282443      -0.36851883      -2.37432227
H       -6.58990636       0.58324249      -2.35143767
O        6.17203374       0.06193028       0.06309252
H        5.34506622      -0.10252783       0.51620409
H        5.91348421       0.32640234      -0.81976563
O       -6.17275204      -0.11275461       3.18651885
H       -6.39800356       0.38229330       3.97418704
H       -5.64014403      -0.84146226       3.50518122
O       -6.15321338       3.19087048      -6.03594956
H       -5.36420321       3.64861984      -6.32605354
H       -6.73250440       3.88574323      -5.72321066
O        6.18258795       3.21417115      -2.93294090
H        6.17873034       2.27574052      -2.74435428
H        6.69849731       3.29563937      -3.73508322
O        6.11355727       3.15406477       0.18716057
H        7.04221125       3.22029813      -0.03520571
H        5.97065069       3.84850829       0.83024513
O       -6.16055886       3.01790400       3.19284326
H       -6.63387427       3.10863517       2.36581714
H       -6.48024624       3.74068626       3.73285958
O       -3.03755475       6.00190730      -6.15431085
H       -3.98174336       5.86656711      -6.23445281
H       -2.70258082       5.88905860      -7.04385538
O       -2.97300981      -6.08174603      -3.05362199
H       -2.87418086      -5.31128389      -3.61295441
H       -2.08216459      -6.28954841      -2.77176244
O       -3.04708429      -6.08873268       0.22970140
H       -3.50825618      -5.95268888      -0.59797269
H       -2.36439523      -6.72671746       0.02199269
O       -3.02495227      -6.21477673       3.12620897
H       -3.07571693      -7.16905849       3.18099133
H       -2.27147561      -5.98297031       3.66913671
O       -3.01108074      -3.23099931      -6.03314118
H       -3.12674796      -3.60399787      -5.15922756
H       -2.78662620      -3.97960578      -6.58580777
O       -3.04130304      -3.00311029      -3.04944038
H       -2.54012767      -2.52065371      -3.70692858
H       -2.40071492      -3.22279727      -2.37296692
O       -3.05625538      -3.10186934       0.12126632
H       -3.40611449      -3.96511317      -0.09927968
H       -3.82740614      -2.57975382       0.34252121
O       -3.07286349      -3.10967025       3.11061609
H       -2.52490075      -3.05538403       2.32765908
H       -2.88058357      -2.30634575       3.59427922
O       -3.15910635      -0.01237611      -6.16758104
H       -4.09938634       0.11997448      -6.28836477
H       -2.85668887      -0.36377012      -7.00501626
O       -2.96941537       0.01281876      -2.94152117
H       -3.77855863      -0.22188775      -2.48717341
H       -2.70603451      -0.78937586      -3.39246036
O       -2.87417414       0.06165737       0.12381599
H       -2.94495152       0.92245620      -0.28879495
H       -2.35535467      -0.45719301      -0.49088107
O       -2.99121361       0.06269935       3.31228485
H       -3.17204004       0.51206618       2.48669228
H       -3.02920015       0.75283052       3.97448410
O       -2.92677507       3.14448251      -6.15884472
H       -1.98609988       3.13957298      -6.33586992
H       -2.99586173       2.95533087      -5.22306669
O       -3.24904228       3.07189800      -3.06815133
H       -2.47234283       2.94608188      -3.61325693
H       -3.77734540       2.28799463      -3.21856128
O       -3.14738099       3.09373094       0.10914809
H       -3.27789110       2.49185324       0.84191148
H       -2.19753371       3.19528014       0.04824045
O       -3.15646975       3.16416514       3.23101374
H       -2.58128533       3.55598834       3.88818137
H       -3.55581276       3.91134001       2.78549526
O        0.05137182      -6.11984489      -6.08324197
H       -0.05268078      -5.30689582      -5.58875364
H        0.88296108      -6.48200338      -5.77741134
O        0.24924727      -6.06727358      -2.86611438
H        0.03428274      -5.44054968      -3.55693943
H       -0.29116882      -6.83311324      -3.06020689
O        0.00422823       6.17817941       0.14793724
H       -0.91915271       6.42797384       0.11326405
H        0.00599743       5.32546129       0.58279412
O        0.04694640      -6.12188501       3.31342602
H       -0.28737411      -6.07302520       2.41783999
H        0.57415216      -5.32961348       3.41634221
O        0.09086950      -2.92345567      -6.11755556
H       -0.80870472      -2.68086251      -6.33697898
H        0.21900601      -3.77438649      -6.53675671
O        0.05698196      -3.04421858      -3.02614422
H        0.89639297      -3.23813949      -3.44329610
H       -0.57710409      -3.06236163      -3.74296885
O        0.11063438      -3.19022279       0.06132818
H        0.92900890      -3.35132275       0.53094695
H       -0.42248573      -2.68447089       0.67470393
O        0.00906096      -3.02006753       3.23316357
H       -0.67019284      -2.76934015       3.85924815
H       -0.09210282      -3.96690131       3.13567757
O        0.01993495      -0.07363380      -6.12104285
H        0.27868804      -0.91609348      -6.49459387
H       -0.38221709       0.39874178      -6.84999202
O        0.05596185       0.12536242      -3.07187508
H        0.15061651      -0.02668530      -2.13158054
H        0.50489380      -0.61444252      -3.48099680
H       -0.23107776       0.69669691       0.61436824
H        0.57957467      -0.57655632       0.49790345
O       -0.01734896       0.10038382       3.39430497
H       -0.39598942       0.51885633       2.62116592
H        0.91267957       0.32370922       3.35682771
O       -0.01488530       3.12829695      -6.07677987
H        0.74505255       3.68460218      -5.90575125
H        0.02884362       2.94409505      -7.01507048
O        0.06604664       3.10187405      -3.08479476
H       -0.62455120       3.74218197      -2.91358660
H        0.57885940       3.48630506      -3.79575728
O        0.10243556       3.12471948       0.18640123
H        0.32337778       4.02510619       0.42456113
H       -0.50383924       2.83773724       0.86926571
O        0.09877088       3.18196990       3.07094158
H       -0.39299419       2.44906862       2.70046261
H       -0.25778105       3.95545851       2.63411446
O        3.07784189      -6.09330474      -6.07088501
H        2.60865218      -5.60382478      -5.39523553
H        3.99309526      -6.07090764      -5.79152599
O        3.11791009       6.12276022      -2.94201215
H        2.48683987       6.63707610      -2.43856266
H        3.09071152       5.25281167      -2.54366358
O        3.15149858      -6.18903990       0.17814173
H        4.10426041      -6.27979229       0.16262608
H        2.82541755      -7.02356774      -0.15870584
O        3.17991947      -6.02165555       3.20936442
H        3.20990459      -5.74037881       4.12381295
H        4.09837649      -6.11900345       2.95798439
O        3.08427298      -3.26501192      -5.99621673
H        2.23965767      -2.98469662      -5.64368283
H        3.19356048      -4.15986363      -5.67445829
O        3.07775140      -3.13301749      -3.02348185
H        3.88871292      -3.51844309      -3.35517503
H        3.17078278      -3.16077592      -2.07121798
O        3.19063126      -3.15453902       0.12965308
H        2.86936507      -2.56649302      -0.55388315
H        3.91500041      -2.67803745       0.53519892
O        3.16416199      -3.04552686       3.15037273
H        4.11395346      -3.02966122       3.26817040
H        2.81099258      -2.94603716       4.03445700
O        3.29396869      -0.03622162      -6.11183057
H        3.26068269      -0.75752843      -5.48346733
H        2.65774894      -0.27549608      -6.78577717
O        3.04434672       0.04245525      -3.09479786
H        2.47363685       0.75698308      -2.81200456
H        3.38965583       0.33111610      -3.93958681
O        3.19272233      -0.10262540       0.08206285
H        3.02491561      -1.03381072      -0.06273573
H        4.07558446       0.03814965      -0.25994401
O        3.16848211      -0.01328383       3.14749014
H        2.56828287       0.72484034       3.04182352
H        3.03091291      -0.54827106       2.36576435
O        3.05857179       3.03239530      -6.13168861
H        2.87488683       3.64902148      -6.84039435
H        3.60808487       3.52457362      -5.52174786
O        3.24899917       3.23695177      -2.82643077
H        3.99887470       2.75864569      -2.47267687
H        3.33985312       3.15737499      -3.77598063
O        3.15106163       3.09979799       0.15214474
H        4.06206453       3.14431085      -0.13824147
H        3.03232857       2.19202354       0.43157246
O        3.06704032       3.14929866       3.18568877
H        3.25655075       2.23157782       3.38089658
H        2.24259698       3.12603103       2.69990731
189
Properties=species:S:1:pos:R:3 pbc="F F F"
O        0.00212617      -0.00213403       0.00064469
O        6.06060841       6.17938941      -2.97981330
H        5.57353080       6.89797467      -2.59039799
H        6.96055899       6.29964608      -2.69390192
O       -6.12966052       6.13215663       0.11704067
H       -6.00020333       5.18309869       0.20768391
H       -5.25476966       6.52079366       0.16814418
O       -6.07100258      -6.07876049       3.26860413
H       -5.67755287      -5.92553508       4.11402681
H       -5.59623245      -5.48021769       2.68992094
O       -6.07490641      -3.10372822      -6.06940235
H       -5.95858860      -3.94016410      -5.62057157
H       -6.14481606      -2.45277948      -5.37646567
O       -6.13852444      -2.98853895      -3.00353700
H       -6.50862963      -2.64504277      -2.17408875
H       -6.27308643      -3.94387628      -2.96160788
O       -6.19680988      -3.14945303       0.04369895
H       -6.91777477      -2.58293966       0.32943675
H       -6.55769388      -4.03877376       0.07013159
O       -6.19804235      -3.11175180       3.02878867
H       -6.87500399      -3.14683107       2.35640837
H       -6.57199057      -3.58983504       3.78833816
O        6.02813593      -0.02665081      -6.01530151
H        6.25801568      -0.72754099      -5.43300343
H        6.59803259       0.68415227      -5.76543019
O       -6.12352477      -0.03362974      -2.91740961
H       -5.41703809      -0.36060732      -2.37514840
H       -6.60419645       0.57248604      -2.35550552
O        6.17189298       0.06384080       0.06180538
H        5.33993734      -0.10892296       0.51121219
H        5.91741775       0.33049259      -0.82267181
O       -6.17390128      -0.11252235       3.18832182
H       -6.40125184       0.39099574       3.97036264
H       -5.63524308      -0.84388294       3.50580487
O       -6.15735302       3.19271222      -6.03472610
H       -5.36324666       3.65134846      -6.32334254
H       -6.74335586       3.88365067      -5.71753812
O        6.18176118       3.21362838      -2.93007773
H        6.18158424       2.25809261      -2.73541648
H        6.70091835       3.30022483      -3.74674415
O        6.11141318       3.15640634       0.18583407
H        7.03045174       3.21551874      -0.02417283
H        5.96986143       3.85909939       0.81589946
O       -6.15986003       3.01925148       3.19427825
H       -6.64346156       3.11283938       2.36885570
H       -6.48998605       3.73444220       3.73159743
O       -3.03880204       6.00441147      -6.15089972
H       -3.98982503       5.85746058      -6.23516707
H       -2.70216001       5.90331277      -7.03726565
O       -2.97545109      -6.08127441      -3.05214479
H       -2.87518486      -5.30621967      -3.59382737
H       -2.07267395      -6.29926426      -2.76148842
O       -3.04730589      -6.08815978       0.22899498
H       -3.51645952      -5.95097467      -0.59444915
H       -2.35521306      -6.74518877       0.02405513
O       -3.02709667       6.21477371       3.12332309
H       -3.07757588       5.24925135       3.18078265
H       -2.26666728       6.44550896       3.67330606
O       -3.01155920      -3.23214205      -6.03301876
H       -3.12722556      -3.60950670      -5.16278851
H       -2.78545509      -3.98466911      -6.57437924
O       -3.03923921      -3.00247668      -3.05143412
H       -2.53739961      -2.52288268      -3.71514510
H       -2.38031871      -3.23092381      -2.37018662
O       -3.05430009      -3.10011122       0.12395643
H       -3.40619859      -3.96394610      -0.09547668
H       -3.83835906      -2.57613460       0.34546223
O       -3.07503746      -3.10964252       3.11208029
H       -2.51595481      -3.04770884       2.32136773
H       -2.88992777      -2.30831529       3.59784338
O       -3.16131435      -0.01202998      -6.16991469
H       -4.10217451       0.12433752      -6.28222971
H       -2.86456897      -0.35375868      -7.00032719
O       -2.97094719       0.01422101      -2.94476250
H       -3.78365455      -0.22387147      -2.48326213
H       -2.70817875      -0.78384496      -3.38934541
O       -2.87233792       0.05786255       0.12830356
H       -2.93369532       0.92721879      -0.28827873
H       -2.35243793      -0.46229891      -0.49633280
O       -2.98796605       0.06136266       3.31190450
H       -3.16704630       0.51374795       2.47440185
H       -3.03132732       0.76214984       3.97598401
O       -2.92766653       3.14572701      -6.16194662
H       -1.97585369       3.14957255      -6.33739140
H       -2.98902066       2.95887129      -5.22957036
O       -3.24789778       3.06839357      -3.06559601
H       -2.48353630       2.95024427      -3.62093108
H       -3.78049339       2.27504478      -3.22888701
O       -3.14571707       3.09199204       0.11233541
H       -3.27841427       2.49100269       0.83179659
H       -2.18936741       3.20052847       0.04281768
O       -3.15361987       3.16388903       3.22964661
H       -2.59163777       3.54876631       3.89583098
H       -3.55925513       3.91188777       2.76738810
O        0.04825174      -6.11979755      -6.08434284
H       -0.06164540      -5.31628672      -5.59890881
H        0.87773881      -6.48479394      -5.77201006
O        0.24830079      -6.06640762      -2.86751591
H        0.03330302      -5.44299264      -3.54717521
H       -0.29377921      -6.82510595      -3.05186261
O        0.00429063       6.17950104       0.14515572
H       -0.93338772       6.42448117       0.12544486
H       -0.01856862       5.32743236       0.57132269
O        0.04662715      -6.12370164       3.31839146
H       -0.28597797      -6.06484793       2.39828819
H        0.56932865      -5.32730090       3.41086266
O        0.09283538      -2.92549508      -6.11666026
H       -0.80934828      -2.69220803      -6.34030835
H        0.21526935      -3.77159540      -6.52063854
O        0.05807276      -3.04133687      -3.02408591
H        0.88574604      -3.24088554      -3.44826002
H       -0.58067781      -3.06804187      -3.73872184
O        0.10872716      -3.19032416       0.06318703
H        0.92789816      -3.34741312       0.51816891
H       -0.41917814      -2.69370766       0.69065441
O        0.00983746      -3.01997029       3.23060283
H       -0.66515175      -2.76812174       3.86157905
H       -0.08877622      -3.97547191       3.14163450
O        0.01937826      -0.07551212      -6.12045278
H        0.28103963      -0.91326543      -6.48666653
H       -0.38843434       0.39610277      -6.85894017
O        0.05771029       0.12311495      -3.07193009
H        0.16213744      -0.03110181      -2.14055366
H        0.51441706      -0.62161293      -3.47734726
H       -0.23969483       0.69640128       0.60536739
H        0.58207885      -0.58064421       0.50487456
O       -0.01538724       0.09950834       3.39395112
H       -0.39262750       0.51604601       2.61830148
H        0.92966563       0.32975410       3.36929803
O       -0.01868499       3.12981376      -6.07813753
H        0.74680366       3.67944231      -5.90646623
H        0.03116873       2.94853178      -7.01747085
O        0.06910257       3.09906786      -3.08639337
H       -0.61996417       3.74295727      -2.91078643
H        0.59855360       3.49051210      -3.79230535
O        0.10129554       3.12507523       0.18458696
H        0.31785548       4.03419337       0.41716584
H       -0.50033930       2.85213930       0.88153137
O        0.09851238       3.18192299       3.06969124
H       -0.40140492       2.44632459       2.70488208
H       -0.26987316       3.94898146       2.63167690
O        3.07987134      -6.09455453      -6.07033702
H        2.60500722      -5.61774172      -5.38252545
H        3.99652796      -6.07547532      -5.79251181
O        3.11759667       6.12239258      -2.94318757
H        2.48932873       6.62900096      -2.44023116
H        3.09175032       5.24257900      -2.53984238
O        3.14845672      -6.18680932       0.17805856
H        4.11207791      -6.28404940       0.16621441
H        2.82974570      -7.03176673      -0.14917929
O        3.18106073      -6.02513840       3.20724137
H        3.20657899      -5.74451396       4.13150797
H        4.10865092      -6.10963361       2.96146166
O        3.08560470      -3.26600416      -5.99621183
H        2.23590921      -2.97740547      -5.64584048
H        3.18751062      -4.15546686      -5.68434336
O        3.07633579      -3.12846536      -3.02248110
H        3.89967413      -3.50876779      -3.35190198
H        3.17184802      -3.15173368      -2.06068621
O        3.18631050      -3.15327426       0.12994057
H        2.85975153      -2.55061133      -0.55486550
H        3.91072544      -2.68153279       0.55498600
O        3.16760771      -3.04266440       3.14373204
H        4.12052453      -3.02347561       3.27795245
H        2.80103098      -2.94110326       4.04956494
O        3.29227010      -0.03712472      -6.11324101
H        3.25725419      -0.76561233      -5.48370251
H        2.64650458      -0.26821887      -6.77132552
O        3.04355636       0.04605620      -3.09396656
H        2.47483684       0.74857718      -2.80715998
H        3.40729607       0.32716934      -3.95003426
O        3.19337507      -0.10173172       0.08154365
H        3.02810131      -1.03622763      -0.05219801
H        4.06881748       0.03599576      -0.26627699
O        3.17002274      -0.01459130       3.14670227
H        2.55966723       0.71824013       3.03629513
H        3.01501502      -0.53941436       2.37382967
O        3.05861398       3.02748829      -6.13150165
H        2.87653212       3.64333116      -6.84569352
H        3.61892618       3.52088973      -5.52982638
O        3.24986817       3.23787392      -2.82915332
H        3.99209152       2.76004873      -2.48308539
H        3.34688373       3.17350643      -3.76813646
O        3.15206664       3.09844517       0.14810084
H        4.06383598       3.15634812      -0.13090292
H        3.03152466       2.19273675       0.42863598
O        3.06758275       3.15131417       3.18624955
H        3.25988498       2.22333661       3.39671548
H        2.25103274       3.14431991       2.69410999
189
Properties=species:S:1:pos:R:3 pbc="F F F"
O        0.00427284      -0.00433653       0.00120580
O        6.06437491       6.18019762      -2.97820475
H        5.56657961       6.89237113      -2.59840994
H        6.95984361       6.29053235      -2.68041332
O       -6.12627498       6.13249311       0.11627624
H       -6.01098218       5.17649260       0.21672937
H       -5.25163332       6.52860768       0.17366918
O       -6.06924290      -6.07965475       3.26714437
H       -5.67375696      -5.92817115       4.10023921
H       -5.58741828      -5.47298003       2.69710129
O       -6.07589272      -3.10662416      -6.06859403
H       -5.96529209      -3.94547265      -5.62202817
H       -6.14903443      -2.45061339      -5.38319526
O       -6.13762519      -2.98651815      -3.00539762
H       -6.50117143      -2.62754255      -2.16254617
H       -6.25843935      -3.95281689      -2.95199303
O       -6.19730919      -3.14804834       0.04691353
H       -6.91785882      -2.57526208       0.33360289
H       -6.55750498      -4.04305056       0.07765774
O       -6.19875717      -3.11244927       3.02921953
H       -6.87285513      -3.14549508       2.35460982
H       -6.57401797      -3.59507355       3.80442996
O        6.02845598      -0.02681586      -6.01693429
H        6.24658329      -0.71263335      -5.43385531
H        6.59322834       0.67731845      -5.77026546
O       -6.12239010      -0.03538336      -2.91656685
H       -5.41978001      -0.35419733      -2.37421449
H       -6.62033686       0.56269478      -2.35993997
O        6.17183857       0.06570436       0.06057545
H        5.33536836      -0.11548444       0.50872086
H        5.92107785       0.33498644      -0.82590098
O       -6.17507006      -0.11229289       3.18995593
H       -6.40512381       0.40072874       3.96832726
H       -5.62967122      -0.84749719       3.50689786
O       -6.16148183       3.19442979      -6.03347151
H       -5.36072382       3.65464476      -6.32115470
H       -6.75490571       3.88260449      -5.71153321
O        6.18093426       3.21305619      -2.92715967
H        6.18488895       2.24097768      -2.72687611
H        6.70309035       3.30490058      -3.75905041
O        6.10908528       3.15868772       0.18447393
H        7.02291274       3.21022575      -0.01475225
H        5.96772664       3.87026545       0.80352482
O       -6.15906121       3.02051572       3.19571512
H       -6.65401365       3.11631774       2.37132515
H       -6.50058667       3.72996917       3.73195457
O       -3.04006454       6.00702515      -6.14735130
H       -3.99871926       5.84785219      -6.23550197
H       -2.70073993       5.91714871      -7.03253589
O       -2.97794047      -6.08093840      -3.05051953
H       -2.87629370      -5.29872921      -3.57626370
H       -2.06343097      -6.30907248      -2.75127571
O       -3.04748717      -6.08759192       0.22837551
H       -3.52476166      -5.94938337      -0.59371058
H       -2.34754023      -6.76460292       0.02603236
O       -3.02925971       6.21474886       3.12046570
H       -3.07907252       5.23818150       3.18058136
H       -2.26068571       6.44547001       3.67709071
O       -3.01197741      -3.23312094      -6.03294657
H       -3.12851625      -3.61589945      -5.16438785
H       -2.78431902      -3.99199395      -6.56479031
O       -3.03722156      -3.00191754      -3.05340528
H       -2.53359294      -2.52453586      -3.72444979
H       -2.35967557      -3.23903349      -2.36656624
O       -3.05226551      -3.09823633       0.12665222
H       -3.40636307      -3.96448721      -0.09169741
H       -3.84988190      -2.57186686       0.34850785
O       -3.07721254      -3.10976390       3.11357520
H       -2.50716132      -3.04010479       2.31383384
H       -2.89945551      -2.30771713       3.60242526
O       -3.16346093      -0.01161075      -6.17204327
H       -4.10685143       0.12864577      -6.27623286
H       -2.87138509      -0.34581906      -6.99814264
O       -2.97250761       0.01581964      -2.94791894
H       -3.78852872      -0.22588675      -2.47911123
H       -2.70937315      -0.77964572      -3.38772284
O       -2.87056944       0.05405814       0.13287709
H       -2.92267036       0.93299050      -0.28851356
H       -2.34854085      -0.46811233      -0.50223928
O       -2.98468451       0.05996845       3.31152665
H       -3.16243397       0.51522816       2.46117627
H       -3.03373853       0.77250392       3.97772631
O       -2.92865131       3.14698287      -6.16525434
H       -1.96406820       3.15976859      -6.33842744
H       -2.98282602       2.96193501      -5.23407183
O       -3.24687230       3.06495456      -3.06299317
H       -2.49174131       2.95367306      -3.62890377
H       -3.78347761       2.26110572      -3.23872853
O       -3.14414376       3.09033228       0.11537282
H       -3.27949785       2.48859849       0.82485540
H       -2.17989216       3.20619150       0.03670452
O       -3.15078435       3.16354569       3.22818330
H       -2.60078095       3.54189139       3.90543329
H       -3.56441739       3.91093788       2.74832580
O        0.04507557      -6.11984907      -6.08558214
H       -0.07144816      -5.32335630      -5.60709767
H        0.87390642      -6.48849699      -5.76639102
O        0.24740666      -6.06553571      -2.86876984
H        0.03196585      -5.44285827      -3.53922313
H       -0.29672222      -6.81966152      -3.04367454
O        0.00436859       6.18095516       0.14238103
H       -0.94733628       6.42278960       0.13724955
H       -0.04327907       5.32942551       0.56122482
O        0.04613812      -6.12562940       3.32328921
H       -0.28398073      -6.05664116       2.37851077
H        0.56740658      -5.32487176       3.40618304
O        0.09487626      -2.92739556      -6.11562850
H       -0.81277566      -2.70267807      -6.34337915
H        0.21281205      -3.77184658      -6.50673082
O        0.05905227      -3.03843425      -3.02191740
H        0.87829792      -3.24395865      -3.45394855
H       -0.58495819      -3.07350275      -3.73582608
O        0.10672465      -3.19041146       0.06491614
H        0.92976001      -3.34444814       0.50694575
H       -0.41729792      -2.70244127       0.70770452
O        0.01072365      -3.01982113       3.22797268
H       -0.66143748      -2.76600320       3.86449319
H       -0.08630961      -3.98440605       3.14693292
O        0.01880071      -0.07727850      -6.11978400
H        0.28421209      -0.91288044      -6.47961005
H       -0.39470572       0.39397166      -6.86832974
O        0.05944477       0.12091378      -3.07213076
H        0.17351310      -0.03578879      -2.14573554
H        0.52412232      -0.62953005      -3.47441199
H       -0.24896290       0.69780534       0.59658378
H        0.58540803      -0.58582025       0.51156003
O       -0.01339345       0.09860991       3.39367047
H       -0.39063921       0.51334670       2.61458725
H        0.94649929       0.33529486       3.38215403
O       -0.02261121       3.13128417      -6.07944895
H        0.75004577       3.67521286      -5.90691575
H        0.03387997       2.95236060      -7.02231357
O        0.07217148       3.09625086      -3.08796601
H       -0.61646289       3.74429446      -2.90729490
H        0.61865656       3.49440295      -3.78936122
O        0.10009860       3.12531243       0.18264295
H        0.31407602       4.04233511       0.40926424
H       -0.49703032       2.86609309       0.89472658
O        0.09832458       3.18185980       3.06857764
H       -0.41048028       2.44227503       2.70973475
H       -0.28230142       3.94450855       2.62910706
O        3.08183331      -6.09584073      -6.06990456
H        2.60055842      -5.63281861      -5.36804466
H        4.00244695      -6.08050418      -5.79290603
O        3.11743626       6.12203720      -2.94450467
H        2.48977234       6.62250837      -2.44040930
H        3.09316685       5.23060356      -2.53633391
O        3.14541495      -6.18450652       0.17796705
H        4.12099880      -6.28809958       0.16989432
H        2.83332511      -7.04166201      -0.13953190
O        3.18212287      -6.02864235       3.20513450
H        3.20333681      -5.74859726       4.14019128
H        4.12034816      -6.10040523       2.96468440
O        3.08695122      -3.26676850      -5.99632406
H        2.23104634      -2.96953396      -5.64771497
H        3.18258881      -4.15323373      -5.69413152
O        3.07483914      -3.12392094      -3.02151722
H        3.91160453      -3.49929228      -3.34918539
H        3.17292961      -3.14307264      -2.04988230
O        3.18191175      -3.15203822       0.13018051
H        2.84903211      -2.53513925      -0.55574899
H        3.90600491      -2.68490389       0.57610383
O        3.17091903      -3.03975025       3.13712183
H        4.12809917      -3.01707373       3.28856001
H        2.79133199      -2.93632976       4.06419059
O        3.29065663      -0.03796176      -6.11454230
H        3.25413504      -0.77516112      -5.48366463
H        2.63320233      -0.26098120      -6.75903468
O        3.04295547       0.04949559      -3.09313743
H        2.47347230       0.74273116      -2.80153452
H        3.42481189       0.32356481      -3.96120074
O        3.19386201      -0.10071362       0.08115007
H        3.03056483      -1.03978363      -0.04177619
H        4.06358831       0.03482533      -0.27486428
O        3.17157164      -0.01582025       3.14611861
H        2.55091435       0.71254785       3.03043534
H        2.99937711      -0.53300312       2.37899157
O        3.05858996       3.02250126      -6.13127011
H        2.87811452       3.63861382      -6.85303513
H        3.63076194       3.51808129      -5.53755915
O        3.25052285       3.23888383      -2.83174946
H        3.98805033       2.76063314      -2.49199895
H        3.35385820       3.18969892      -3.76360737
O        3.15297824       3.09719871       0.14403717
H        4.06772071       3.16847291      -0.12390447
H        3.03021952       2.19160940       0.42622071
O        3.06827514       3.15333386       3.18694170
H        3.26392807       2.21569961       3.41290503
H        2.25710492       3.16305842       2.68723381
189
Properties=species:S:1:pos:R:3 pbc="F F F"
O        0.00646773      -0.00663706       0.00169793
O        6.06810613       6.18091481      -2.97682683
H        5.55709953       6.88764947      -2.60480459
H        6.96225720       6.28140867      -2.66576210
O       -6.12300686       6.13294222       0.11550179
H       -6.02111656       5.17016413       0.22487667
H       -5.24743421       6.53659242       0.17984646
O       -6.06767205      -6.08066010       3.26543160
H       -5.66789824      -5.93078911       4.08906435
H       -5.57794132      -5.46512338       2.70276570
O       -6.07689891      -3.10955914      -6.06803510
H       -5.97180259      -3.95123057      -5.62231240
H       -6.15352293      -2.44785146      -5.38768231
O       -6.13680484      -2.98445734      -3.00722534
H       -6.49269791      -2.61066944      -2.15173805
H       -6.24312128      -3.96140573      -2.94230939
O       -6.19772423      -3.14662795       0.05007655
H       -6.91711793      -2.56659602       0.33764325
H       -6.55790133      -4.04866814       0.08525247
O       -6.19944469      -3.11320489       3.02987055
H       -6.87125686      -3.14425265       2.35078804
H       -6.57486651      -3.59919940       3.81956532
O        6.02863317      -0.02689362      -6.01889675
H        6.23616154      -0.70177026      -5.43084854
H        6.59005099       0.67507923      -5.77372172
O       -6.12138739      -0.03711532      -2.91594256
H       -5.42049445      -0.34949630      -2.37102613
H       -6.63830686       0.55373882      -2.36477622
O        6.17183955       0.06751772       0.05941095
H        5.33182110      -0.12209026       0.50838592
H        5.92447596       0.33984306      -0.82923333
O       -6.17623774      -0.11209338       3.19144636
H       -6.40944354       0.41120364       3.96781561
H       -5.62391943      -0.85158886       3.50830683
O       -6.16558158       3.19605785      -6.03218831
H       -5.35733448       3.65825163      -6.31923138
H       -6.76670324       3.88231099      -5.70540302
O        6.18015447       3.21236007      -2.92424330
H        6.18872752       2.22621864      -2.71924666
H        6.70416716       3.30933565      -3.77060211
O        6.10650681       3.16090441       0.18309529
H        7.02074659       3.20440604      -0.00720651
H        5.96413928       3.88194752       0.79326426
O       -6.15818317       3.02169930       3.19711208
H       -6.66518000       3.11895737       2.37364537
H       -6.51207384       3.72736009       3.73412873
O       -3.04141594       6.00973817      -6.14365878
H       -4.00729490       5.83792361      -6.23538449
H       -2.69828372       5.93055583      -7.02986676
O       -2.98038714      -6.08079266      -3.04869764
H       -2.87736705      -5.28841512      -3.56044796
H       -2.05605117      -6.31848294      -2.74170335
O       -3.04755278      -6.08710248       0.22781347
H       -3.53286479      -5.94808431      -0.59553072
H       -2.34283218      -6.78365223       0.02814887
O       -3.03139047       6.21472401       3.11768098
H       -3.08011516       5.22855404       3.18036001
H       -2.25442828       6.44622011       3.67983558
O       -3.01233385      -3.23394665      -6.03291764
H       -3.13066818      -3.62302583      -5.16397572
H       -2.78319741      -4.00156317      -6.55719314
O       -3.03515052      -3.00144771      -3.05529044
H       -2.52896802      -2.52588065      -3.73443729
H       -2.34010969      -3.24660062      -2.36351012
O       -3.05023235      -3.09621376       0.12936995
H       -3.40649155      -3.96646470      -0.08787053
H       -3.86080242      -2.56772583       0.35133428
O       -3.07933132      -3.11002780       3.11502037
H       -2.49944861      -3.03264023       2.30638715
H       -2.90915208      -2.30460446       3.60796262
O       -3.16558549      -0.01109049      -6.17390199
H       -4.11309257       0.13284321      -6.27036475
H       -2.87682464      -0.34034730      -6.99951097
O       -2.97415500       0.01763402      -2.95094559
H       -3.79241731      -0.22773702      -2.47513753
H       -2.70944001      -0.77733488      -3.38787603
O       -2.86883702       0.05027683       0.13745988
H       -2.91181710       0.93873925      -0.28899520
H       -2.34422423      -0.47409530      -0.50790336
O       -2.98138732       0.05860778       3.31112636
H       -3.15794719       0.51588161       2.44827098
H       -3.03640212       0.78306315       3.97885649
O       -2.92964351       3.14825378      -6.16880157
H       -1.95204777       3.17016992      -6.33875256
H       -2.97732215       2.96445231      -5.23630881
O       -3.24603092       3.06150479      -3.06034535
H       -2.49668714       2.95639479      -3.63737238
H       -3.78551668       2.24738463      -3.24779886
O       -3.14258887       3.08880525       0.11820262
H       -3.28114161       2.48401607       0.82179549
H       -2.17024200       3.21200718       0.03010004
O       -3.14800704       3.16317933       3.22656824
H       -2.60869721       3.53562669       3.91710933
H       -3.57061824       3.90759752       2.72908772
O        0.04187719      -6.12007836      -6.08699420
H       -0.08225173      -5.32707149      -5.61264649
H        0.87107426      -6.49291131      -5.76066652
O        0.24660190      -6.06467139      -2.86982751
H        0.03002471      -5.43951125      -3.53378296
H       -0.30032235      -6.81720379      -3.03574610
O        0.00436576       6.18257831       0.13961153
H       -0.95976046       6.42290431       0.14855456
H       -0.06795923       5.33087001       0.55270191
O        0.04543906      -6.12764317       3.32797811
H       -0.28068897      -6.04869213       2.36061155
H        0.56837061      -5.32249934       3.40239428
O        0.09694828      -2.92909055      -6.11444525
H       -0.81853987      -2.71228155      -6.34603708
H        0.21188407      -3.77617234      -6.49542150
O        0.05988648      -3.03550671      -3.01965222
H        0.87441417      -3.24745649      -3.46049239
H       -0.58976198      -3.07871311      -3.73393389
O        0.10458181      -3.19046370       0.06652407
H        0.93506549      -3.34250978       0.49743500
H       -0.41658377      -2.71092682       0.72556443
O        0.01170241      -3.01967237       3.22527607
H       -0.65886571      -2.76307372       3.86782477
H       -0.08465351      -3.99271762       3.15168713
O        0.01816333      -0.07886797      -6.11908170
H        0.28830866      -0.91534000      -6.47363138
H       -0.40050602       0.39172194      -6.87727875
O        0.06118948       0.11871565      -3.07252745
H        0.18476316      -0.04074410      -2.14655115
H        0.53358540      -0.63752461      -3.47194743
H       -0.25883491       0.70085655       0.58809810
H        0.58907013      -0.59154687       0.51766311
O       -0.01127587       0.09771338       3.39346025
H       -0.38977933       0.51069716       2.61019414
H        0.96141785       0.33998972       3.39529343
O       -0.02664559       3.13271439      -6.08074105
H        0.75453967       3.67174251      -5.90708638
H        0.03692138       2.95564001      -7.02921053
O        0.07527411       3.09346145      -3.08955467
H       -0.61370081       3.74595011      -2.90326530
H        0.63849792       3.49761425      -3.78609629
O        0.09882817       3.12546394       0.18060829
H        0.31201424       4.04899565       0.40062491
H       -0.49358965       2.87963092       0.90849467
O        0.09817677       3.18176164       3.06757308
H       -0.41986622       2.43734769       2.71530705
H       -0.29496409       3.94191294       2.62655287
O        3.08372622      -6.09713788      -6.06954899
H        2.59581937      -5.64938429      -5.35231029
H        4.01041801      -6.08596453      -5.79278896
O        3.11744717       6.12159714      -2.94594358
H        2.48787413       6.61784285      -2.43882299
H        3.09499920       5.21817391      -2.53372949
O        3.14245274      -6.18217858       0.17785055
H        4.12961452      -6.29173755       0.17368871
H        2.83631606      -7.05271757      -0.12954217
O        3.18316517      -6.03215214       3.20309928
H        3.20015602      -5.75297546       4.14873048
H        4.13256299      -6.09122051       2.96791728
O        3.08825979      -3.26722606      -5.99655489
H        2.22588698      -2.96144146      -5.64961690
H        3.17876502      -4.15415440      -5.70351008
O        3.07332287      -3.11941126      -3.02054333
H        3.92364894      -3.48959460      -3.34663008
H        3.17396240      -3.13480095      -2.03993752
O        3.17744113      -3.15076699       0.13033981
H        2.83774740      -2.52081194      -0.55559623
H        3.90018839      -2.68845545       0.59810475
O        3.17408353      -3.03676793       3.13069278
H        4.13594299      -3.01045479       3.29989544
H        2.78286478      -2.93198499       4.07603839
O        3.28915046      -0.03877518      -6.11567596
H        3.25138811      -0.78546942      -5.48392880
H        2.61743488      -0.25382675      -6.74922835
O        3.04262105       0.05275298      -3.09241208
H        2.46920896       0.74005164      -2.79514902
H        3.44133722       0.32003495      -3.97146808
O        3.19416247      -0.09959341       0.08088676
H        3.03236843      -1.04414924      -0.03136679
H        4.06019569       0.03471344      -0.28586527
O        3.17311224      -0.01691231       3.14576816
H        2.54239829       0.70763223       3.02447334
H        2.98396160      -0.52976853       2.38053481
O        3.05850376       3.01747421      -6.13101015
H        2.87975915       3.63443646      -6.86193221
H        3.64335079       3.51593691      -5.54518201
O        3.25091880       3.24000846      -2.83417487
H        3.98739388       2.75997168      -2.49901835
H        3.36085110       3.20598555      -3.76348922
O        3.15379467       3.09606006       0.13995235
H        4.07358616       3.18054944      -0.11717591
H        3.02854725       2.18875312       0.42426580
O        3.06915391       3.15527899       3.18779865
H        3.26811691       2.21009718       3.42895641
H        2.26082328       3.18200355       2.67925364
189
Properties=species:S:1:pos:R:3 pbc="F F F"
O        0.00873303      -0.00905315       0.00214380
O        6.07181821       6.18153767      -2.97568323
H        5.54518244       6.88382525      -2.60954066
H        6.96741024       6.27233994      -2.64993335
O       -6.11983652       6.13348444       0.11471849
H       -6.03042738       5.16497646       0.23203525
H       -5.24262988       6.54431606       0.18670286
O       -6.06629152      -6.08175273       3.26338387
H       -5.65955080      -5.93334766       4.08168340
H       -5.56819883      -5.45704806       2.70710653
O       -6.07792247      -3.11253883      -6.06772365
H       -5.97816526      -3.95717340      -5.62144648
H       -6.15826906      -2.44461676      -5.38997118
O       -6.13609675      -2.98238308      -3.00895169
H       -6.48276192      -2.59513049      -2.14280356
H       -6.22708165      -3.96857425      -2.93249178
O       -6.19808630      -3.14521841       0.05319554
H       -6.91530908      -2.55730765       0.34142044
H       -6.55867859      -4.05483564       0.09291299
O       -6.20013316      -3.11405407       3.03080058
H       -6.87016120      -3.14317936       2.34518824
H       -6.57415837      -3.60157960       3.83259799
O        6.02863369      -0.02685867      -6.02124668
H        6.22693130      -0.69587837      -5.42313476
H        6.58884294       0.67794991      -5.77568155
O       -6.12054080      -0.03880734      -2.91554414
H       -5.41901610      -0.34652114      -2.36535188
H       -6.65794813       0.54535704      -2.37015039
O        6.17186510       0.06927765       0.05831783
H        5.32974405      -0.12860041       0.50984759
H        5.92761867       0.34500507      -0.83240586
O       -6.17738617      -0.11194355       3.19283043
H       -6.41397473       0.42199434       3.96837453
H       -5.61850023      -0.85542308       3.50987193
O       -6.16963334       3.19763679      -6.03087834
H       -5.35384353       3.66187475      -6.31729419
H       -6.77823890       3.88242433      -5.69938364
O        6.17946092       3.21147059      -2.92137746
H        6.19315238       2.21518365      -2.71292820
H        6.70346722       3.31324476      -3.78023368
O        6.10365858       3.16306575       0.18171005
H        7.02425370       3.19802910      -0.00155882
H        5.95908904       3.89389230       0.78507134
O       -6.15725657       3.02282337       3.19844155
H       -6.67659227       3.12065069       2.37626119
H       -6.52433025       3.72640421       3.73806562
O       -3.04291430       6.01253839      -6.13983502
H       -4.01452661       5.82786221      -6.23475963
H       -2.69489774       5.94355512      -7.02913166
O       -2.98272049      -6.08085916      -3.04665727
H       -2.87832082      -5.27532760      -3.54625074
H       -2.05177114      -6.32707696      -2.73323700
O       -3.04745766      -6.08674512       0.22726978
H       -3.54036056      -5.94726495      -0.59945379
H       -2.34215750      -6.80131478       0.03055087
O       -3.03344199       6.21465448       3.11500908
H       -3.08063553       5.22129603       3.18009244
H       -2.24870982       6.44746450       3.68094284
O       -3.01262293      -3.23465566      -6.03292276
H       -3.13368828      -3.63063692      -5.16178733
H       -2.78217001      -4.01304903      -6.55149186
O       -3.03293720      -3.00107414      -3.05704957
H       -2.52384665      -2.52723759      -3.74461841
H       -2.32271420      -3.25317647      -2.36213617
O       -3.04827555      -3.09402949       0.13212027
H       -3.40640770      -3.96944044      -0.08388261
H       -3.87009791      -2.56438327       0.35366479
O       -3.08134073      -3.11040836       3.11636028
H       -2.49361759      -3.02537947       2.30016711
H       -2.91906317      -2.29934198       3.61418673
O       -3.16772477      -0.01045454      -6.17546218
H       -4.12038437       0.13683271      -6.26462348
H       -2.88081235      -0.33749108      -7.00490004
O       -2.97593098       0.01966472      -2.95381453
H       -3.79469712      -0.22927212      -2.47169095
H       -2.70832788      -0.77711530      -3.38988566
O       -2.86710923       0.04654950       0.14197864
H       -2.90109961       0.94348913      -0.28924990
H       -2.34002165      -0.47973429      -0.51264897
O       -2.97809055       0.05736217       3.31068328
H       -3.15337332       0.51517297       2.43678004
H       -3.03927931       0.79306187       3.97860848
O       -2.93056613       3.14954077      -6.17259836
H       -1.94098072       3.18075939      -6.33816671
H       -2.97252795       2.96642452      -5.23636827
O       -3.24540729       3.05797710      -3.05767151
H       -2.49847449       2.95847811      -3.64625675
H       -3.78595331       2.23490018      -3.25583312
O       -3.14099102       3.08743898       0.12079774
H       -3.28323708       2.47704844       0.82282073
H       -2.16148562       3.21769922       0.02322363
O       -3.14531161       3.16283040       3.22476782
H       -2.61560400       3.53008809       3.93069758
H       -3.57725761       3.90119755       2.71039631
O        0.03869186      -6.12053343      -6.08859132
H       -0.09413500      -5.32695997      -5.61520026
H        0.86874019      -6.49776158      -5.75498142
O        0.24590305      -6.06382309      -2.87066974
H        0.02733925      -5.43273897      -3.53112505
H       -0.30468802      -6.81780715      -3.02813404
O        0.00420089       6.18438823       0.13685497
H       -0.96965191       6.42486696       0.15921238
H       -0.09245951       5.33142265       0.54583193
O        0.04451174      -6.12970582       3.33235049
H       -0.27562516      -6.04126829       2.34619114
H        0.57206797      -5.32055375       3.39955622
O        0.09900032      -2.93055055      -6.11311810
H       -0.82594588      -2.72112045      -6.34808035
H        0.21259782      -3.78492486      -6.48679167
O        0.06056463      -3.03255840      -3.01732263
H        0.87398447      -3.25135587      -3.46779802
H       -0.59479422      -3.08363233      -3.73262492
O        0.10228094      -3.19046193       0.06804373
H        0.94373662      -3.34156389       0.48952548
H       -0.41665515      -2.71950281       0.74382626
O        0.01275026      -3.01956690       3.22252509
H       -0.65713405      -2.75947373       3.87128681
H       -0.08377317      -3.99953501       3.15598972
O        0.01743961      -0.08024733      -6.11839437
H        0.29329535      -0.92062576      -6.46876116
H       -0.40537251       0.38880671      -6.88502580
O        0.06297166       0.11647459      -3.07312916
H        0.19584417      -0.04588166      -2.14308140
H        0.54239731      -0.64496386      -3.46970494
H       -0.26918093       0.70530344       0.57984383
H        0.59257933      -0.59728262       0.52289842
O       -0.00896960       0.09684231       3.39331272
H       -0.38974936       0.50797698       2.60541054
H        0.97303999       0.34358085       3.40857316
O       -0.03075910       3.13411393      -6.08205362
H        0.75988526       3.66875153      -5.90701440
H        0.04022385       2.95848396      -7.03751959
O        0.07842385       3.09073937      -3.09119323
H       -0.61125567       3.74761159      -2.89887234
H        0.65744568       3.49982797      -3.78179010
O        0.09746289       3.12555358       0.17852329
H        0.31166733       4.05378029       0.39106396
H       -0.48964643       2.89280914       0.92240478
O        0.09803135       3.18161811       3.06664417
H       -0.42918217       2.43203139       2.72188031
H       -0.30767519       3.94087817       2.62426131
O        3.08556234      -6.09842074      -6.06922459
H        2.59133401      -5.66776018      -5.33587817
H        4.01976085      -6.09182773      -5.79230826
O        3.11762779       6.12100161      -2.94747237
H        2.48368029       6.61494486      -2.43546634
H        3.09726292       5.20646136      -2.53254775
O        3.13963639      -6.17988044       0.17769172
H        4.13667761      -6.29477102       0.17760270
H        2.83892470      -7.06425818      -0.11895880
O        3.18424856      -6.03565359       3.20118492
H        3.19702981      -5.75795382       4.15609609
H        4.14435043      -6.08200536       2.97142091
O        3.08948360      -3.26732620      -5.99689669
H        2.22123199      -2.95351158      -5.65183514
H        3.17593495      -4.15875079      -5.71233620
O        3.07184622      -3.11496063      -3.01952115
H        3.93497544      -3.47928548      -3.34387250
H        3.17488894      -3.12693185      -2.03180924
O        3.17290721      -3.14940694       0.13039722
H        2.82635806      -2.50823497      -0.55365782
H        3.89267479      -2.69246060       0.62053644
O        3.17710778      -3.03370509       3.12455998
H        4.14328221      -3.00362764       3.31180607
H        2.77634142      -2.92826452       4.08342792
O        3.28774991      -0.03961359      -6.11661002
H        3.24906290      -0.79585215      -5.48505875
H        2.59918730      -0.24667668      -6.74181629
O        3.04259957       0.05583288      -3.09186228
H        2.46210697       0.74064664      -2.78821923
H        3.45609603       0.31641521      -3.97950281
O        3.19427744      -0.09839653       0.08074956
H        3.03361606      -1.04887004      -0.02087111
H        4.05856877       0.03565081      -0.29928904
O        3.17461985      -0.01783537       3.14564267
H        2.53451346       0.70333293       3.01861773
H        2.96883064      -0.52998860       2.37835961
O        3.05836280       3.01245634      -6.13074133
H        2.88161927       3.63027655      -6.87177585
H        3.65637037       3.51418957      -5.55300776
O        3.25104121       3.24125463      -2.83641288
H        3.99031596       2.75792819      -2.50401250
H        3.36790780       3.22243002      -3.76817077
O        3.15452930       3.09501857       0.13584446
H        4.08101580       3.19240195      -0.11056543
H        3.02668397       2.18451030       0.42263861
O        3.07022819       3.15709235       3.18883674
H        3.27196259       2.20761921       3.44440440
H        2.26255163       3.20090642       2.67037754
189
Properties=species:S:1:pos:R:3 pbc="F F F"
O        0.01108213      -0.01158824       0.00256971
O        6.07553821       6.18208332      -2.97475962
H        5.53116735       6.88061413      -2.61272115
H        6.97449347       6.26337084      -2.63306236
O       -6.11674150       6.13410919       0.11392788
H       -6.03873302       5.16164659       0.23812310
H       -5.23772076       6.55134650       0.19425417
O       -6.06508154      -6.08289824       3.26095860
H       -5.64858195      -5.93591334       4.07856086
H       -5.55863517      -5.44921659       2.71039514
O       -6.07896179      -3.11556197      -6.06764170
H       -5.98443227      -3.96296514      -5.61950405
H       -6.16324016      -2.44122857      -5.39031001
O       -6.13552261      -2.98031966      -3.01052467
H       -6.47106671      -2.58148741      -2.13658534
H       -6.21030880      -3.97344283      -2.92251060
O       -6.19842432      -3.14385031       0.05627763
H       -6.91224477      -2.54773842       0.34481554
H       -6.55962473      -4.06072413       0.10062863
O       -6.20085122      -3.11501903       3.03203708
H       -6.86935155      -3.14234295       2.33823110
H       -6.57168217      -3.60179817       3.84270557
O        6.02847163      -0.02670431      -6.02398253
H        6.21882095      -0.69488685      -5.41063428
H        6.58944750       0.68575806      -5.77620692
O       -6.11985440      -0.04044716      -2.91535435
H       -5.41561519      -0.34509055      -2.35726879
H       -6.67897907       0.53719471      -2.37626931
O        6.17188883       0.07098136       0.05729967
H        5.32950993      -0.13487277       0.51276382
H        5.93050302       0.35040821      -0.83514779
O       -6.17850190      -0.11185380       3.19415053
H       -6.41845056       0.43259630       3.96944788
H       -5.61388266      -0.85833532       3.51145600
O       -6.17361991       3.19920623      -6.02954252
H       -5.35098329       3.66523064      -6.31508102
H       -6.78900478       3.88260255      -5.69370943
O        6.17888234       3.21034358      -2.91860006
H        6.19818758       2.20876254      -2.70819282
H        6.70050658       3.31640714      -3.78707687
O        6.10057484       3.16519197       0.18032500
H        7.03279160       3.19106860       0.00239820
H        5.95265914       3.90568108       0.77874685
O       -6.15631929       3.02392446       3.19969238
H       -6.68790144       3.12130440       2.37957906
H       -6.53709825       3.72662911       3.74348594
O       -3.04459673       6.01541366      -6.13591062
H       -4.01959022       5.81784043      -6.23359559
H       -2.69081664       5.95618575      -7.02990296
O       -2.98489205      -6.08112556      -3.04440236
H       -2.87913546      -5.25996457      -3.53326492
H       -2.05140922      -6.33453445      -2.72620625
O       -3.04718397      -6.08655427       0.22670022
H       -3.54678437      -5.94711015      -0.60487587
H       -2.34619543      -6.81686266       0.03331981
O       -3.03537542       6.21451032       3.11248252
H       -3.08059719       5.21702323       3.17975266
H       -2.24419044       6.44896641       3.67992864
O       -3.01283588      -3.23530580      -6.03295084
H       -3.13754606      -3.63840663      -5.15829168
H       -2.78139954      -4.02586336      -6.54738920
O       -3.03050902      -3.00079727      -3.05866419
H       -2.51857168      -2.52893368      -3.75448780
H       -2.30830212      -3.25841671      -2.36323589
O       -3.04645789      -3.09168579       0.13490792
H       -3.40589664      -3.97287770      -0.07959823
H       -3.87697743      -2.56235051       0.35529220
O       -3.08319685      -3.11086480       3.11756652
H       -2.49028114      -3.01837655       2.29604386
H       -2.92927713      -2.29254196       3.62066953
O       -3.16990522      -0.00970456      -6.17673832
H       -4.12811234       0.14048912      -6.25902535
H       -2.88354262      -0.33711416      -7.01407584
O       -2.97785603       0.02189165      -2.95651821
H       -3.79494281      -0.23040245      -2.46901951
H       -2.70612510      -0.77879151      -3.39361131
O       -2.86535811       0.04290260       0.14637054
H       -2.89051035       0.94642244      -0.28887566
H       -2.33638389      -0.48460453      -0.51589096
O       -2.97480683       0.05629683       3.31018288
H       -3.14855590       0.51269608       2.42754587
H       -3.04232893       0.80186747       3.97637556
O       -2.93135688       3.15084207      -6.17663038
H       -1.93183541       3.19150004      -6.33652126
H       -2.96844906       2.96791947      -5.23467190
O       -3.24500287       3.05431838      -3.05500504
H       -2.49753622       2.96002476      -3.65520615
H       -3.78430597       2.22441214      -3.26261317
O       -3.13930773       3.08623084       0.12316605
H       -3.28555894       2.46796427       0.82758277
H       -2.15450699       3.22300201       0.01629564
O       -3.14270150       3.16253203       3.22277293
H       -2.62192079       3.52525420       3.94576500
H       -3.58385144       3.89133739       2.69286852
O        0.03554901      -6.12122029      -6.09036057
H       -0.10705743      -5.32325116      -5.61480072
H        0.86636884      -6.50273647      -5.74948490
O        0.24530351      -6.06299099      -2.87131030
H        0.02390185      -5.42282138      -3.53103151
H       -0.30969315      -6.82117642      -3.02085305
O        0.00381031       6.18638053       0.13412842
H       -0.97628944       6.42875473       0.16906455
H       -0.11663176       5.33101725       0.54055338
O        0.04335689      -6.13177237       3.33633089
H       -0.26851410      -6.03460730       2.33635385
H        0.57824056      -5.31954141       3.39771244
O        0.10098161      -2.93179130      -6.11167638
H       -0.83416682      -2.72935735      -6.34928944
H        0.21492271      -3.79767816      -6.48060257
O        0.06109980      -3.02960155      -3.01497568
H        0.87646387      -3.25551145      -3.47555238
H       -0.59969945      -3.08821253      -3.73146301
O        0.09983457      -3.19039202       0.06952639
H        0.95516129      -3.34147160       0.48287125
H       -0.41707349      -2.72853306       0.76202497
O        0.01384035      -3.01953434       3.21973861
H       -0.65586881      -2.75537274       3.87451591
H       -0.08364734      -4.00418801       3.15990696
O        0.01661854      -0.08141815      -6.11776922
H        0.29899579      -0.92830053      -6.46485503
H       -0.40894990       0.38480805      -6.89099972
O        0.06481967       0.11414647      -3.07390325
H        0.20663382      -0.05103172      -2.13602940
H        0.55021116      -0.65132242      -3.46746930
H       -0.27979462       0.71072603       0.57163384
H        0.59551409      -0.60254439       0.52703723
O       -0.00643781       0.09601668       3.39321646
H       -0.39022485       0.50502952       2.60059861
H        0.98041514       0.34590808       3.42183074
O       -0.03491552       3.13549427      -6.08343341
H        0.76557966       3.66589823      -5.90676878
H        0.04370344       2.96103690      -7.04645222
O        0.08162605       3.08812048      -3.09290434
H       -0.60868548       3.74894270      -2.89429461
H        0.67497462       3.50080937      -3.77589657
O        0.09597954       3.12559526       0.17642597
H        0.31305862       4.05647086       0.38044771
H       -0.48483215       2.90568589       0.93600597
O        0.09784808       3.18142717       3.06575582
H       -0.43806446       2.42680963       2.72969920
H       -0.32018774       3.94096149       2.62254450
O        3.08736411      -6.09966709      -6.06888402
H        2.58762208      -5.68821879      -5.31928105
H        4.02966034      -6.09806526      -5.79165130
O        3.11795660       6.12021140      -2.94904960
H        2.47757523       6.61346957      -2.43060548
H        3.09995279       5.19641606      -2.53318838
O        3.13701506      -6.17766844       0.17747468
H        4.14120697      -6.29703163       0.18162891
H        2.84136081      -7.07556099      -0.10753966
O        3.18542858      -6.03913468       3.19943040
H        3.19395952      -5.76376847       4.16145965
H        4.15484488      -6.07271851       2.97541524
O        3.09058778      -3.26705681      -5.99733302
H        2.21777020      -2.94611067      -5.65460093
H        3.17392203      -4.16695569      -5.72066506
O        3.07046050      -3.11058859      -3.01842318
H        3.94486444      -3.46804674      -3.34062119
H        3.17565968      -3.11947593      -2.02620607
O        3.16831909      -3.14791894       0.13034313
H        2.81522217      -2.49784575      -0.54940942
H        3.88296985      -2.69713253       0.64298100
O        3.18001140      -3.03055345       3.11880454
H        4.14940040      -2.99660951       3.32409245
H        2.77221341      -2.92529356       4.08525888
O        3.28642842      -0.04052593      -6.11734145
H        3.24719267      -0.80571873      -5.48753804
H        2.57885375      -0.23934586      -6.73632528
O        3.04290249       0.05876455      -3.09152446
H        2.45263092       0.74412449      -2.78115939
H        3.46846284       0.31264606      -3.98433887
O        3.19422982      -0.09714755       0.08072528
H        3.03443932      -1.05343409      -0.01020847
H        4.05827728       0.03754692      -0.31497948
O        3.17606138      -0.01858703       3.14569556
H        2.52763531       0.69949089       3.01304577
H        2.95418865      -0.53346570       2.37301066
O        3.05817708       3.00749935      -6.13048407
H        2.88384861       3.62559680      -6.88192512
H        3.66945845       3.51254792      -5.56137545
O        3.25090942       3.24260869      -2.83847974
H        3.99651468       2.75469688      -2.50713799
H        3.37501981       3.23909162      -3.77723205
O        3.15520685       3.09405505       0.13171191
H        4.08938501       3.20381893      -0.10387400
H        3.02483316       2.17939260       0.42115559
O        3.07148283       3.15874240       3.19005491
H        3.27507046       2.20895654       3.45886354
H        2.26293877       3.21950639       2.66101365
