192
Lattice="12.429633119082435 0.0 0.0 0.0 12.429633119082435 0.0 0.0 0.0 12.429633119082435" Properties=species:S:1:pos:R:3 pbc="T T T"
O        0.07638047       0.00287602      12.41819874
H        0.17495305       0.53587347       0.77750732
H        0.56941205       0.47447549      11.74682281
O       12.27162331      12.39333159       3.23318613
H       11.79291365       0.68932362       3.63385687
H        0.74948161       0.09383355       3.50842425
O        0.08164048      12.34677416       6.33261168
H        0.22586312      11.40389180       6.41263992
H        0.95831649       0.29872493       6.37805113
O        0.14188292       0.13682734       9.48472814
H        0.53494714       0.29182775      10.34362699
H        0.61073113       0.72825689       8.89598008
O        0.14087366       3.11395663       0.14437275
H        0.26315661       2.27935394       0.59682945
H        0.07395512       3.76038052       0.84714577
O        0.07535749       3.22432257       3.21309247
H       12.12879885       3.55244652       4.02982149
H       12.35730181       2.27907571       3.24355921
O        0.01861954       3.06399212       6.25524226
H       11.72731880       3.62554390       6.54010330
H       12.08582242       2.17833902       6.27748501
O        0.01754234       3.10375111       9.24330634
H       11.76688546       3.06663710       8.57095233
H       12.07513284       2.63050829       9.98752228
O       12.24256192       6.18838377       0.20091573
H        0.05526252       5.46995914       0.78518643
H        0.38890188       6.90932622       0.45533437
O        0.09006548       6.18294044       3.29637668
H        0.80199213       5.84629773       3.84049429
H       12.05454332       6.79805905       3.86337889
O       12.38685030       6.27674683       6.27790908
H       11.55988278       6.11228873       6.73102065
H       12.12830077       6.54121890       5.39505093
O        0.04206452       6.10206195       9.40133541
H       12.24644612       6.59710986      10.18900360
H        0.57467253       5.37335430       9.71999778
O        0.06160318       9.40568704       0.17886700
H        0.85061335       9.86343639      12.31839614
H       11.91194528      10.10055978       0.49160590
O       12.39740451       9.42898771       3.28187566
H       12.39354690       8.49055708       3.47046228
H        0.48368075       9.51045593       2.47973334
O       12.32837383       9.36888133       6.40197713
H        0.82739469       9.43511469       6.17961085
H       12.18546725      10.06332485       7.04506169
O        0.05425770       9.23272056       9.40765982
H       12.01057541       9.32345173       8.58063370
H       12.16420343       9.95550282       9.94767614
O        3.17726181      12.21672386       0.06050571
H        2.23307320      12.08138367      12.40999687
H        3.51223574      12.10387516      11.60059429
O        3.24180675       0.13307053       3.16119457
H        3.34063570       0.90353267       2.60186215
H        4.13265197      12.35490127       3.44305412
O        3.16773227       0.12608388       6.44451796
H        2.70656038       0.26212768       5.61684387
H        3.85042133      11.91773222       6.23680924
O        3.18986429       0.00003983       9.34102552
H        3.13909963      11.47539119       9.39580789
H        3.94334095       0.23184625       9.88395327
O        3.20373582       2.98381724       0.18167538
H        3.08806860       2.61081869       1.05558900
H        3.42819036       2.23521078      12.05864191
O        3.17351352       3.21170627       3.16537618
H        3.67468889       3.69416285       2.50788798
H        3.81410164       2.99201929       3.84184963
O        3.15856118       3.11294722       6.33608288
H        2.80870207       2.24970339       6.11553688
H        2.38741041       3.63506274       6.55733777
O        3.14195307       3.10514631       9.32543265
H        3.68991581       3.15943253       8.54247564
H        3.33423299       3.90847081       9.80909578
O        3.05571021       6.20244045       0.04723552
H        2.11543022       6.33479104      12.35608490
H        3.35812769       5.85104644      11.63943342
O        3.24540119       6.22763532       3.27329539
H        2.43625793       5.99292881       3.72764315
H        3.50878205       5.42544070       2.82235620
O        3.34064242       6.27647393       6.33863255
H        3.26986504       7.13727276       5.92602161
H        3.85946189       5.75762355       5.72393549
O        3.22360295       6.27751591       9.52710141
H        3.04277652       6.72688274       8.70150884
H        3.18561641       6.96764708      10.18930066
O        3.28804149       9.35929907       0.05597184
H        4.22871668       9.35438954      12.30857976
H        3.21895482       9.17014743       0.99174987
O        2.96577428       9.28671456       3.14666523
H        3.74247373       9.16089844       2.60155963
H        2.43747116       8.50281118       2.99625528
O        3.06743557       9.30854750       6.32396465
H        2.93692546       8.70666980       7.05672804
H        4.01728285       9.41009670       6.26305701
O        3.05834681       9.37898170       9.44583030
H        3.63353123       9.77080490      10.10299793
H        2.65900380      10.12615656       9.00031181
O        6.26618838       0.09497167       0.13157459
H        6.16213578       0.90792074       0.62606292
H        7.09777764      12.16244630       0.43740522
O        6.46406383       0.14754298       3.34870218
H        6.24909930       0.77426688       2.65787713
H        5.92364774      11.81133644       3.15460967
O        6.21904479      12.39299597       6.36275380
H        5.29566385       0.21315728       6.32808061
H        6.22081399      11.54027785       6.79761068
O        6.26176296       0.09293155       9.52824258
H        5.92744245       0.14179136       8.63265654
H        6.78896872       0.88520308       9.63115877
O        6.30568606       3.29136089       0.09726100
H        5.40611184       3.53395405      12.30747070
H        6.43382257       2.44043006      12.10769297
O        6.27179852       3.17059798       3.18867233
H        7.11120952       2.97667707       2.77152046
H        5.63771247       3.15245493       2.47184771
O        6.32545094       3.02459377       6.27614474
H        7.14382546       2.86349381       6.74576351
H        5.79233083       3.53034567       6.88952049
O        6.22387752       3.19474903       9.44798013
H        5.54462372       3.44547641      10.07406471
H        6.12271374       2.24791525       9.35049413
O        6.23475151       6.14118276       0.09377371
H        6.49350460       5.29872308      12.14985581
H        5.83259947       6.61355834      11.79445766
O        6.27077841       6.34017898       3.14294148
H        6.36543307       6.18813125       4.08323602
H        6.71971036       5.60037404       2.73381976
O        6.21481656       6.21481656       6.21481656
H        5.98373879       6.91151346       6.82918480
H        6.79439123       5.63826024       6.71272001
O        6.19746760       6.31520038       9.60912153
H        5.81882714       6.73367289       8.83598248
H        7.12749613       6.53852578       9.57164427
O        6.19993126       9.34311351       0.13803669
H        6.95986911       9.89941874       0.30906531
H        6.24366018       9.15891161      11.62937920
O        6.28086319       9.31669061       3.13002180
H        5.59026536       9.95699853       3.30122996
H        6.79367596       9.70112162       2.41905928
O        6.31725212       9.33953604       6.40121779
H        6.53819434      10.23992275       6.63937769
H        5.71097732       9.05255380       7.08408227
O        6.31358744       9.39678646       9.28575814
H        5.82182237       8.66388518       8.91527917
H        5.95703551      10.17027507       8.84893102
O        9.29265845       0.12151182       0.14393155
H        8.82346874       0.61099178       0.81958103
H       10.20791182       0.14390892       0.42329057
O        9.33272665      12.33757678       3.27280440
H        8.70165643       0.42225954       3.77625390
H        9.30552807      11.46762823       3.67115298
O        9.36631514       0.02577666       6.39295829
H       10.31907697      12.36465739       6.37744264
H        9.04023411      11.62088194       6.05611072
O        9.39473603       0.19316101       9.42418098
H        9.42472115       0.47443775      10.33862951
H       10.31319305       0.09581311       9.17280095
O        9.29908954       2.94980464       0.21859983
H        8.45447423       3.23011994       0.57113373
H        9.40837704       2.05495293       0.54035827
O        9.29256796       3.08179907       3.19133471
H       10.10352948       2.69637347       2.85964153
H        9.38559934       3.05404064       4.14359858
O        9.40544782       3.06027754       6.34446964
H        9.08418163       3.64832354       5.66093341
H       10.12981697       3.53677911       6.75001548
O        9.37897855       3.16928970       9.36518929
H       10.32877002       3.18515534       9.48298696
H        9.02580914       3.26877940      10.24927356
O        9.50878525       6.17859494       0.10298599
H        9.47549925       5.45728812       0.73134923
H        8.87256550       5.93932048      11.85867251
O        9.25916328       6.25727180       3.12001870
H        8.68845341       6.97179964       3.40281200
H        9.60447239       6.54593266       2.27522975
O        9.40753889       6.11219116       6.29687940
H        9.23973216       5.18100583       6.15208083
H       10.29040102       6.25296621       5.95487255
O        9.38329867       6.20153273       9.36230670
H        8.78309943       6.93965690       9.25664008
H        9.24572947       5.66654550       8.58058091
O        9.27338835       9.24721186       0.08312795
H        9.08970339       9.86383804      11.80405533
H        9.82290143       9.73939018       0.69306870
O        9.46381573       9.45176833       3.38838579
H       10.21369126       8.97346224       3.74213969
H        9.55466968       9.37219155       2.43883593
O        9.36587819       9.31461455       6.36696130
H       10.27688109       9.35912741       6.07657509
H        9.24714513       8.40684010       6.64638902
O        9.28185688       9.36411522       9.40050533
H        9.47136731       8.44639438       9.59571314
H        8.45741354       9.34084759       8.91472387
192
Lattice="12.429633119082435 0.0 0.0 0.0 12.429633119082435 0.0 0.0 0.0 12.429633119082435" Properties=species:S:1:pos:R:3 pbc="T T T"
O        0.07638450       0.00353338      12.41774550
H        0.17210609       0.54743176       0.78381855
H        0.57245129       0.47330378      11.74169410
O       12.27542497      12.39420597       3.23500326
H       11.78834736       0.68315811       3.62441856
H        0.74574243       0.08482952       3.52091464
O        0.08515604      12.34697319       6.33185723
H        0.21461323      11.39791525       6.42250047
H        0.96004690       0.30597711       6.38296074
O        0.14381398       0.13605607       9.48342069
H        0.53726369       0.28928148      10.32884337
H        0.61858410       0.73459887       8.90473750
O        0.13991015       3.11108834       0.14541421
H        0.25622796       2.27465246       0.59424498
H        0.07000050       3.76203708       0.83835089
O        0.07629211       3.22627761       3.21127956
H       12.13582005       3.56977379       4.04072781
H       12.37136325       2.27094028       3.25320868
O        0.01800668       3.06536353       6.25851551
H       11.72667491       3.63187690       6.54425331
H       12.08675580       2.17604280       6.28494815
O        0.01677421       3.10306476       9.24360523
H       11.76944569       3.06798549       8.57122493
H       12.07245911       2.62498152      10.00315472
O       12.24295249       6.18816575       0.19951505
H        0.04319913       5.48727557       0.78181313
H        0.38321603       6.89896883       0.44938637
O        0.09129178       6.18118682       3.29740695
H        0.79777847       5.85420924       3.83966816
H       12.04025323       6.78730260       3.85931104
O       12.38670954       6.27865736       6.27662194
H       11.55475390       6.10589360       6.72602875
H       12.13223431       6.54530915       5.39214475
O        0.04091528       6.10229421       9.40313838
H       12.24319784       6.60581230      10.18517920
H        0.57957348       5.37093362       9.72062143
O        0.05746354       9.40752878       0.18009046
H        0.85156990       9.86616502      12.32110714
H       11.90109382      10.09846722       0.49727844
O       12.39657774       9.42844494       3.28473883
H       12.39640080       8.47290917       3.47940008
H        0.48610179       9.51504139       2.46807241
O       12.32622974       9.37122290       6.40065063
H        0.81563518       9.43033530       6.19064373
H       12.18467799      10.07391595       7.03071602
O        0.05495653       9.23406804       9.40909481
H       12.00098812       9.32765594       8.58367226
H       12.15446362       9.94925876       9.94641399
O        3.17601452      12.21922803       0.06391684
H        2.22499153      12.07227714      12.40928260
H        3.51265655      12.11812933      11.60718403
O        3.23936547       0.13354215       3.16267176
H        3.33963170       0.90859689       2.62098919
H        4.14214261      12.34518542       3.45332814
O        3.16751067       0.12665677       6.44381154
H        2.69835704       0.26384189       5.62036741
H        3.85960350      11.89926091       6.23887169
O        3.18771989      12.42959027       9.33813965
H        3.13724068      11.46406791       9.39559921
H        3.94814928       0.23069240       9.88812262
O        3.20325736       2.98267451       0.18179780
H        3.08759100       2.60530986       1.05202805
H        3.42936147       2.23014745      12.07007044
O        3.17557735       3.21233988       3.16338244
H        3.67741695       3.69193388       2.49967146
H        3.83449785       2.98389275       3.84462994
O        3.16051647       3.11470534       6.33877299
H        2.80861797       2.25087046       6.11933988
H        2.37645750       3.63868196       6.56027879
O        3.13977910       3.10517404       9.32689685
H        3.69886175       3.16710772       8.53618429
H        3.32488879       3.90650127       9.81265994
O        3.05350221       6.20278658       0.04490187
H        2.11264205       6.33915408      12.36221997
H        3.35024759       5.86105788      11.64412249
O        3.24386937       6.22903756       3.27005406
H        2.43116201       5.99094509       3.73155443
H        3.50663781       5.43097160       2.82547115
O        3.34247864       6.27267911       6.34312012
H        3.28112124       7.14203535       5.92653783
H        3.86237863       5.75251765       5.71848376
O        3.22685051       6.27617922       9.52672106
H        3.04777026       6.72856451       8.68921841
H        3.18348924       6.97696640      10.19080057
O        3.28715003       9.36054357       0.05286994
H        4.23896287       9.36438910      12.30705827
H        3.22579590       9.17368785       0.98524620
O        2.96691878       9.28321013       3.14922055
H        3.73128026       9.16506083       2.59388548
H        2.43432317       8.48986134       2.98592955
O        3.06909949       9.30680860       6.32715197
H        2.93640229       8.70581925       7.04661315
H        4.02544915       9.41534503       6.25763424
O        3.06119669       9.37870559       9.44446316
H        3.62317879       9.76358287      10.11064754
H        2.65556142      10.12670433       8.98220466
O        6.26306830       0.09501901       0.13047372
H        6.15317116       0.89852984       0.61590775
H        7.09255537      12.15965574       0.44280650
O        6.46311735       0.14840894       3.34730065
H        6.24811958       0.77182392       2.66764135
H        5.92103735      11.81934373       3.16295394
O        6.21910719      12.39431760       6.35997228
H        5.28142884       0.20966461       6.34026142
H        6.19624794      11.54224892       6.78613925
O        6.26144371       0.09111492       9.53320802
H        5.92883859       0.14996862       8.61310475
H        6.78414521       0.88751566       9.62567922
O        6.30765194       3.28932148       0.09815630
H        5.40546828       3.52260853      12.30414133
H        6.43008591       2.44322116      12.12381114
O        6.27288932       3.17347969       3.19073065
H        7.10056260       2.97393102       2.76655654
H        5.63413875       3.14677469       2.47609472
O        6.32354372       3.02449240       6.27800359
H        7.14271471       2.86740344       6.73298547
H        5.79563842       3.52110889       6.90547097
O        6.22465402       3.19484627       9.44541939
H        5.54966481       3.44669482      10.07639561
H        6.12604034       2.23934465       9.35645106
O        6.23419482       6.13930444       0.09436378
H        6.49585619       5.30155112      12.15778315
H        5.82638222       6.61091933      11.78550951
O        6.27252685       6.33793151       3.14288647
H        6.37695400       6.18371475       4.07426290
H        6.72923362       5.59320363       2.73746930
O        6.21694273       6.21268253       6.21546125
H        5.97512173       6.91121784       6.82018395
H        6.79689541       5.63417235       6.71969112
O        6.19942932       6.31432490       9.60876768
H        5.82218906       6.73086257       8.83311804
H        7.14448219       6.54457066       9.58411459
O        6.19613157       9.34463032       0.13667903
H        6.96162022       9.89425887       0.30835033
H        6.24598529       9.16334834      11.62697883
O        6.28391913       9.31388442       3.12842319
H        5.59485239       9.95777383       3.30403013
H        6.81337016       9.70532866       2.42251121
O        6.31611210       9.33989179       6.39940352
H        6.53267204      10.24900993       6.63198240
H        5.71447726       9.06695586       7.09634793
O        6.31332894       9.39673955       9.28450780
H        5.81341164       8.66114115       8.91969863
H        5.94494340      10.16379802       8.84649346
O        9.29468790       0.12026203       0.14447954
H        8.81982378       0.59707484       0.83229111
H       10.21134452       0.13934124       0.42230475
O        9.33241323      12.33720914       3.27162899
H        8.70414529       0.41418440       3.77458540
H        9.30656688      11.45739556       3.67497418
O        9.36327327       0.02800724       6.39287512
H       10.32689447      12.36040028       6.38103097
H        9.04456226      11.61268295       6.06563727
O        9.39587729       0.18967816       9.42205793
H        9.42139555       0.47030260      10.34632453
H       10.32346748       0.10518295       9.17627822
O        9.30042126       2.94881240       0.21860473
H        8.45072577       3.23741109       0.56897608
H        9.40232718       2.05934970       0.53047319
O        9.29115235       3.08635120       3.19233546
H       10.11449069       2.70604877       2.86291458
H        9.38666458       3.06308288       4.15413035
O        9.40112706       3.06154230       6.34475713
H        9.07456809       3.66420523       5.65995106
H       10.12554200       3.53328377       6.76980256
O        9.38242427       3.17215216       9.35854860
H       10.33534108       3.19134095       9.49276901
H        9.01584754       3.27371330      10.26438150
O        9.50708666       6.17769184       0.10157555
H        9.47207075       5.44920423       0.73111405
H        8.86132114       5.94659768      11.87312416
O        9.25837292       6.26087276       3.12085000
H        8.68965340       6.96339374       3.40765658
H        9.62211263       6.54198590       2.26478230
O        9.40819163       6.11308484       6.29636021
H        9.24291787       5.17858893       6.16261855
H       10.28363404       6.25081232       5.94853957
O        9.38483930       6.20022526       9.36151883
H        8.77448378       6.93305669       9.25111168
H        9.22983158       5.67540220       8.58864623
O        9.27343054       9.24230485       0.08331491
H        9.09134868       9.85814772      11.79875615
H        9.83374274       9.73570629       0.68499018
O        9.46468473       9.45269048       3.38566324
H       10.20690808       8.97486529       3.73173117
H        9.56170029       9.38832299       2.44668009
O        9.36688320       9.31326173       6.36291740
H       10.27865254       9.37116468       6.08391364
H        9.24634122       8.40755331       6.64345254
O        9.28239931       9.36613073       9.40106611
H        9.47470154       8.43815317       9.61153204
H        8.46584930       9.35913647       8.90892655
192
Lattice="12.429633119082435 0.0 0.0 0.0 12.429633119082435 0.0 0.0 0.0 12.429633119082435" Properties=species:S:1:pos:R:3 pbc="T T T"
O        0.07631703       0.00407548      12.41737850
H        0.16921446       0.55853553       0.79161674
H        0.57611802       0.47391949      11.73720091
O       12.27919147      12.39501418       3.23661181
H       11.78139617       0.67755457       3.61640662
H        0.74502705       0.07571579       3.53440323
O        0.08854158      12.34730967       6.33109280
H        0.20383438      11.39130916       6.43154593
H        0.96318324       0.31379112       6.38848574
O        0.14557366       0.13516181       9.48196093
H        0.54105960       0.28664541      10.31505577
H        0.62739828       0.74183653       8.91191785
O        0.13892384       3.10819240       0.14622253
H        0.24952446       2.26934391       0.59278839
H        0.06578213       3.76420317       0.83162130
O        0.07719137       3.22829841       3.20941894
H       12.14327825       3.58727401       4.05227039
H       12.38601032       2.26199967       3.26282352
O        0.01750737       3.06676822       6.26173009
H       11.72659086       3.63955448       6.54841945
H       12.08694470       2.17176599       6.29247430
O        0.01605939       3.10236729       9.24403609
H       11.77159454       3.06932148       8.56942638
H       12.07043171       2.61974301      10.01924652
O       12.24327254       6.18800070       0.19788227
H        0.03176673       5.50218321       0.78096125
H        0.37841178       6.89213501       0.44455110
O        0.09242645       6.17943320       3.29824971
H        0.79503655       5.86061923       3.84060207
H       12.02411282       6.77751134       3.85487659
O       12.38665513       6.28052092       6.27539201
H       11.55018492       6.09933212       6.72353742
H       12.13589441       6.54980300       5.38891558
O        0.03974650       6.10252367       9.40477249
H       12.23932587       6.61554530      10.18314382
H        0.58514534       5.36731937       9.72171442
O        0.05333473       9.40924635       0.18134505
H        0.85409274       9.86946132      12.32329498
H       11.88954397      10.09742105       0.50328335
O       12.39575082       9.42787275       3.28765689
H       12.39970551       8.45579424       3.48794045
H        0.48827379       9.51971714       2.45576614
O       12.32390184       9.37350428       6.39929049
H        0.80809618       9.42504231       6.20006431
H       12.18254320      10.08508201       7.01834138
O        0.05575535       9.23533228       9.41053168
H       11.99043603       9.33113430       8.58614171
H       12.14386301       9.94478572       9.94677113
O        3.17475202      12.22184170       0.06746526
H        2.21609730      12.06266875      12.40894771
H        3.51407663      12.13196527      11.61191379
O        3.23687609       0.13387816       3.16429703
H        3.33852285       0.91608735       2.63855286
H        4.15138559      12.33537719       3.46354085
O        3.16732939       0.12722464       6.44319207
H        2.69005490       0.26543319       5.62110598
H        3.86727633      11.87984676       6.24084892
O        3.18555685      12.42956542       9.33528226
H        3.13574404      11.45299806       9.39539792
H        3.95413085       0.23065345       9.89190727
O        3.20283915       2.98169562       0.18186999
H        3.08630031       2.59891711       1.05042871
H        3.43049754       2.22282260      12.07965937
O        3.17759500       3.21289902       3.16141128
H        3.68122362       3.69028070       2.49036677
H        3.85514099       2.97578307       3.84825032
O        3.16255105       3.11658023       6.34146878
H        2.80845349       2.25032935       6.12311915
H        2.36493466       3.64294970       6.56332441
O        3.13760402       3.10505266       9.32839176
H        3.70765523       3.17471176       8.52865040
H        3.31536105       3.90709943       9.81724182
O        3.05135563       6.20320581       0.04277329
H        2.10796513       6.34346233      12.36821682
H        3.34343146       5.86899750      11.64630704
O        3.24230895       6.23063620       3.26689762
H        2.42628784       5.98892981       3.73570533
H        3.50544341       5.43517084       2.82709372
O        3.34424712       6.26887470       6.34769365
H        3.29214620       7.14780706       5.92630300
H        3.86627571       5.74670423       5.71257728
O        3.23013205       6.27478501       9.52634321
H        3.05238259       6.73004472       8.67599283
H        3.18107803       6.98732048      10.19254287
O        3.28616525       9.36179943       0.04956222
H        4.25074836       9.37458514      12.30602224
H        3.23199054       9.17675157       0.98074473
O        2.96794426       9.27977112       3.15182339
H        3.72307525       9.16848962       2.58591279
H        2.43133895       8.47592228       2.97608803
O        3.07067280       9.30514884       6.33018938
H        2.93531871       8.70341505       7.03967196
H        4.03492440       9.42100806       6.25152108
O        3.06403221       9.37836225       9.44299986
H        3.61403561       9.75670794      10.12024985
H        2.65039917      10.12575444       8.96314236
O        6.25989213       0.09496749       0.12923442
H        6.14336840       0.89146026       0.60771889
H        7.08872298      12.15595269       0.44842554
O        6.46222322       0.14928085       3.34604672
H        6.24678241       0.77195829       2.67559343
H        5.91809434      11.82478816       3.17114202
O        6.21918514      12.39577172       6.35719759
H        5.26748028       0.20797304       6.35206611
H        6.17153749      11.54424207       6.77604138
O        6.26095468       0.08918716       9.53810577
H        5.93083583       0.15817540       8.59332733
H        6.78222314       0.88994480       9.62099960
O        6.30969282       3.28742100       0.09918806
H        5.40204090       3.51213849      12.30107053
H        6.42762860       2.44296998      12.13771886
O        6.27386883       3.17638231       3.19289916
H        7.09311448       2.97085791       2.76086801
H        5.62985837       3.14131381       2.47899048
O        6.32154121       3.02440510       6.27973269
H        7.14457657       2.87036842       6.72176230
H        5.79751864       3.51237529       6.92252108
O        6.22554021       3.19499543       9.44278924
H        5.55337908       3.44881336      10.07930975
H        6.12850695       2.23041051       9.36174948
O        6.23361727       6.13753806       0.09503256
H        6.49902865       5.30193612      12.16483963
H        5.82011084       6.60878822      11.77611993
O        6.27426133       6.33573034       3.14268580
H        6.38832966       6.17902777       4.06908102
H        6.73893888       5.58528650       2.74040457
O        6.21908940       6.21048003       6.21602236
H        5.96585366       6.91262190       6.81140034
H        6.80022459       5.62899631       6.72637659
O        6.20142311       6.31342647       9.60848703
H        5.82417735       6.72816326       8.82940381
H        7.16131585       6.55011142       9.59697059
O        6.19220535       9.34610073       0.13536761
H        6.96486233       9.89002942       0.30790081
H        6.24869653       9.16717716      11.62213611
O        6.28698804       9.31106742       3.12685055
H        5.59835367       9.95911102       3.30752166
H        6.83347312       9.70921951       2.42545534
O        6.31491515       9.34012899       6.39745951
H        6.52889258      10.25715167       6.62408080
H        5.71778624       9.08090965       7.10954314
O        6.31314114       9.39667636       9.28339420
H        5.80433628       8.65709159       8.92455131
H        5.93251514      10.15932511       8.84392362
O        9.29664987       0.11897583       0.14491200
H        8.81537498       0.58199795       0.84677190
H       10.21726351       0.13431238       0.42191053
O        9.33225282      12.33685376       3.27031189
H        8.70458890       0.40769181       3.77440726
H        9.30798341      11.44542012       3.67848265
O        9.36023151       0.03031004       6.39278360
H       10.33581536      12.35635010       6.38471088
H        9.04814167      11.60278767       6.07528466
O        9.39693943       0.18617421       9.41995106
H        9.41815337       0.46621930      10.35500784
H       10.33516471       0.11441133       9.17950096
O        9.30176778       2.94804806       0.21849250
H        8.44586290       3.24528260       0.56710159
H        9.39740537       2.06158283       0.52068504
O        9.28965570       3.09089562       3.19329934
H       10.12642109       2.71552428       2.86563117
H        9.38774617       3.07174392       4.16493426
O        9.39672831       3.06277834       6.34499707
H        9.06384867       3.67967731       5.65906757
H       10.12082147       3.52991267       6.79092039
O        9.38573559       3.17506631       9.35193839
H       10.34291573       3.19774283       9.50337657
H        9.00614855       3.27848680      10.27900715
O        9.50547319       6.17685480       0.10027426
H        9.46895160       5.43965544       0.73115193
H        8.84801889       5.95383536      11.88541499
O        9.25777203       6.26431215       3.12167913
H        8.68828886       6.95754772       3.41328204
H        9.63962845       6.53838137       2.25361582
O        9.40867857       6.11410294       6.29596663
H        9.24538139       5.17503293       6.17304037
H       10.27840487       6.24964189       5.93995228
O        9.38638820       6.19899631       9.36093517
H        8.76573091       6.92736441       9.24525190
H        9.21419367       5.68181344       8.59380813
O        9.27340652       9.23731782       0.08354645
H        9.09293108       9.85343038      11.79141455
H        9.84557850       9.73289785       0.67725740
O        9.46533941       9.45370038       3.38306710
H       10.20286689       8.97544970       3.72281761
H        9.56867476       9.40451548       2.45120919
O        9.36779480       9.31201527       6.35885373
H       10.28253727       9.38328947       6.09091209
H        9.24503608       8.40642596       6.64103727
O        9.28309170       9.36815042       9.40175825
H        9.47874463       8.43051617       9.62772159
H        8.47192147       9.37787498       8.90205037
192
Lattice="12.429633119082435 0.0 0.0 0.0 12.429633119082435 0.0 0.0 0.0 12.429633119082435" Properties=species:S:1:pos:R:3 pbc="T T T"
O        0.07620356       0.00456454      12.41714124
H        0.16618799       0.56839624       0.79973311
H        0.58010841       0.47607690      11.73373816
O       12.28292269      12.39573137       3.23798973
H       11.77191609       0.67283291       3.61001197
H        0.74744064       0.06659211       3.54905446
O        0.09180970      12.34775878       6.33031835
H        0.19370000      11.38498069       6.43969323
H        0.96738235       0.32177586       6.39466302
O        0.14714451       0.13415646       9.48024816
H        0.54691832       0.28402745      10.30388090
H        0.63687524       0.74969318       8.91758226
O        0.13791765       3.10525742       0.14678146
H        0.24301397       2.26358599       0.59250416
H        0.06129363       3.76696510       0.82713425
O        0.07801172       3.23035922       3.20759122
H       12.15175177       3.60414712       4.06307851
H       12.40132839       2.25341083       3.27250717
O        0.01709233       3.06818861       6.26489311
H       11.72733175       3.64822054       6.55245981
H       12.08654835       2.16614842       6.30006903
O        0.01537187       3.10161167       9.24468711
H       11.77319282       3.07056391       8.56560460
H       12.06958316       2.61561716      10.03438188
O       12.24344973       6.18792294       0.19591981
H        0.02134498       5.51304630       0.78396802
H        0.37523443       6.88989579       0.44109484
O        0.09342917       6.17770124       3.29887400
H        0.79432211       5.86532026       3.84379043
H       12.00614282       6.76855538       3.85004034
O       12.38665611       6.28233428       6.27422751
H       11.54663766       6.09272630       6.72320248
H       12.13929252       6.55465962       5.38558323
O        0.03857882       6.10272318       9.40626292
H       12.23500614       6.62602020      10.18263217
H        0.59089713       5.36322769       9.72312339
O        0.04923497       9.41087441       0.18262825
H        0.85748208       9.87306819      12.32521830
H       11.87774643      10.09712755       0.50941354
O       12.39497103       9.42717663       3.29057326
H       12.40354408       8.44103520       3.49556990
H        0.48935060       9.52415221       2.44421445
O       12.32132337       9.37572097       6.39791185
H        0.80593003       9.41922260       6.20761005
H       12.17895583      10.09676408       7.00808082
O        0.05663338       9.23651586       9.41192864
H       11.97926968       9.33377393       8.58846193
H       12.13237584       9.94217665       9.94894528
O        3.17340062      12.22455473       0.07115777
H        2.20752166      12.05274017      12.40906519
H        3.51653284      12.14537239      11.61458292
O        3.23442942       0.13402390       3.16611892
H        3.33744951       0.92640144       2.65436860
H        4.15876539      12.32596674       3.47311321
O        3.16726378       0.12771408       6.44263003
H        2.68195177       0.26673225       5.61928584
H        3.87198438      11.86079745       6.24296543
O        3.18342609      12.42954057       9.33249754
H        3.13470140      11.44337060       9.39517657
H        3.96038828       0.23140355       9.89465214
O        3.20248271       2.98086991       0.18189892
H        3.08414838       2.59179073       1.05084084
H        3.43161915       2.21325339      12.08725654
O        3.17966604       3.21336885       3.15952612
H        3.68584854       3.68893591       2.48037927
H        3.87470687       2.96821594       3.85130644
O        3.16458421       3.11860280       6.34418651
H        2.80832501       2.24835186       6.12694603
H        2.35401414       3.64709073       6.56615084
O        3.13548524       3.10478876       9.32983692
H        3.71536795       3.18217633       8.52120370
H        3.30566448       3.91021210       9.82277918
O        3.04923107       6.20372607       0.04091457
H        2.10172399       6.34765977      12.37408493
H        3.33799192       5.87446926      11.64493871
O        3.24066156       6.23245057       3.26387097
H        2.42239925       5.98707954       3.73967903
H        3.50537655       5.43748168       2.82694053
O        3.34597954       6.26509339       6.35227644
H        3.30299945       7.15355581       5.92582136
H        3.87059233       5.74072126       5.70691320
O        3.23342924       6.27342434       9.52594292
H        3.05686937       6.73069817       8.66308754
H        3.17841444       6.99787971      10.19367305
O        3.28517305       9.36307034       0.04601499
H        4.26276879       9.38498648      12.30569712
H        3.23749441       9.17926886       0.97850775
O        2.96878564       9.27632135       3.15447120
H        3.71812942       9.17121135       2.57744418
H        2.42929988       8.46220119       2.96701770
O        3.07222769       9.30362181       6.33301918
H        2.93367495       8.69883263       7.03661205
H        4.04457456       9.42682374       6.24491659
O        3.06680952       9.37799589       9.44138480
H        3.60611935       9.75044325      10.13192589
H        2.64419832      10.12241408       8.94390428
O        6.25669375       0.09473820       0.12782236
H        6.13256483       0.88774507       0.60217007
H        7.08589082      12.15153837       0.45415004
O        6.46141846       0.15014517       3.34498905
H        6.24484127       0.77530531       2.68103360
H        5.91449421      11.82724589       3.17907046
O        6.21918232      12.39739487       6.35442809
H        5.25505610       0.20808775       6.36337112
H        6.14685733      11.54568657       6.76751847
O        6.26025562       0.08717339       9.54279467
H        5.93412759       0.16612443       8.57542811
H        6.78318717       0.89231722       9.61721084
O        6.31176484       3.28572601       0.10037130
H        5.39627669       3.50253501      12.29841260
H        6.42670063       2.43864422      12.14902818
O        6.27470304       3.17930985       3.19516434
H        7.08923073       2.96736007       2.75432417
H        5.62505458       3.13610345       2.48088267
O        6.31939837       3.02435286       6.28134063
H        7.14988205       2.87230678       6.71225156
H        5.79823279       3.50388974       6.94038099
O        6.22651897       3.19514419       9.44009263
H        5.55595085       3.45174284      10.08264133
H        6.13016305       2.22209894       9.36650369
O        6.23297989       6.13594858       0.09573486
H        6.50312522       5.29947656      12.17081829
H        5.81431054       6.60653850      11.76717093
O        6.27600604       6.33353221       3.14228911
H        6.39957972       6.17407246       4.06826541
H        6.74840196       5.57729195       2.74286913
O        6.22128429       6.20817950       6.21651449
H        5.95598165       6.91567311       6.80291466
H        6.80388669       5.62326969       6.73247967
O        6.20354069       6.31252994       9.60827681
H        5.82503723       6.72551372       8.82501070
H        7.17623441       6.55480628       9.61010999
O        6.18817097       9.34753095       0.13407551
H        6.96935623       9.88655907       0.30773018
H        6.25173794       9.17045657      11.61523915
O        6.29009067       9.30827801       3.12526188
H        5.60111575       9.96076667       3.31155126
H        6.85331448       9.71243081       2.42872027
O        6.31364473       9.34028050       6.39542485
H        6.52683080      10.26381221       6.61544147
H        5.72122691       9.09444748       7.12331123
O        6.31299333       9.39657820       9.28238964
H        5.79495034       8.65216425       8.93012361
H        5.91985247      10.15672950       8.84136943
O        9.29854278       0.11767868       0.14526757
H        8.81063593       0.56543227       0.86250627
H       10.22523457       0.12885203       0.42202760
O        9.33226373      12.33641370       3.26887298
H        8.70269069       0.40302629       3.77599357
H        9.30981576      11.43299047       3.68108707
O        9.35726930       0.03263798       6.39266711
H       10.34443108      12.35271213       6.38850527
H        9.05113262      11.59173211       6.08527439
O        9.39798173       0.18266442       9.41791583
H        9.41497258       0.46184110      10.36354704
H       10.34737955       0.12359605       9.18273384
O        9.30307635       2.94759050       0.21826167
H        8.44070354       3.25337510       0.56519966
H        9.39358158       2.06066216       0.51130648
O        9.28813943       3.09540530       3.19427323
H       10.13846550       2.72522196       2.86818648
H        9.38877896       3.08001561       4.17487904
O        9.39225769       3.06404957       6.34515637
H        9.05256396       3.69400462       5.65922033
H       10.11500495       3.52636111       6.81292131
O        9.38890009       3.17804863       9.34550934
H       10.35075955       3.20436177       9.51471200
H        8.99768134       3.28283156      10.29085495
O        9.50396702       6.17604138       0.09914060
H        9.46620467       5.42934714       0.73088776
H        8.83225144       5.96098981      11.89522133
O        9.25743761       6.26756954       3.12240448
H        8.68402552       6.95486820       3.41966754
H        9.65615378       6.53485151       2.24334848
O        9.40897903       6.11522315       6.29570332
H        9.24718499       5.17066732       6.18344977
H       10.27501225       6.24953000       5.92895129
O        9.38792880       6.19790425       9.36058472
H        8.75721485       6.92244879       9.23928990
H        9.19877816       5.68504803       8.59535137
O        9.27332032       9.23229076       0.08380641
H        9.09457571       9.84925302      11.78251747
H        9.85816735       9.73075347       0.66963455
O        9.46573536       9.45482502       3.38064169
H       10.20221044       8.97478824       3.71579821
H        9.57566766       9.42080211       2.45132734
O        9.36861123       9.31087662       6.35476891
H       10.28840272       9.39536600       6.09764065
H        9.24336381       8.40356968       6.63908235
O        9.28397047       9.37009555       9.40261521
H        9.48293347       8.42491374       9.64377297
H        8.47563984       9.39682011       8.89407020
192
Lattice="12.429633119082435 0.0 0.0 0.0 12.429633119082435 0.0 0.0 0.0 12.429633119082435" Properties=species:S:1:pos:R:3 pbc="T T T"
O        0.07606845       0.00505761      12.41706746
H        0.16295964       0.57631745       0.80716177
H        0.58410965       0.47952593      11.73170531
O       12.28663477      12.39635423       3.23913333
H       11.75999900       0.66900869       3.60527590
H        0.75259369       0.05752339       3.56488321
O        0.09498004      12.34830100       6.32953505
H        0.18438918      11.37979302       6.44685181
H        0.97218668       0.32949950       6.40151941
O        0.14852504       0.13306383       9.47820043
H        0.55526576       0.28146890      10.29649996
H        0.64661773       0.75776850       8.92192309
O        0.13689409       3.10227773       0.14709291
H        0.23665130       2.25764316       0.59337008
H        0.05654750       3.77019980       0.82484538
O        0.07871981       3.23243348       3.20586487
H       12.16168776       3.61968607       4.07201300
H       12.41736803       2.24624231       3.28232478
O        0.01673026       3.06959815       6.26801210
H       11.72914059       3.65750891       6.55623700
H       12.08577109       2.15998092       6.30772955
O        0.01468340       3.10076249       9.24561714
H       11.77428848       3.07163720       8.56000480
H       12.07029131       2.61323696      10.04741455
O       12.24345025       6.18795789       0.19356987
H        0.01211474       5.51893819       0.79168180
H        0.37402638       6.89276647       0.43913501
O        0.09427576       6.17600922       3.29927242
H        0.79580046       5.86829542       3.84946468
H       11.98650155       6.76017360       3.84466617
O       12.38668166       6.28409421       6.27313439
H       11.54456061       6.08621615       6.72466415
H       12.14243523       6.55982163       5.38241070
O        0.03743039       6.10287300       9.40764699
H       12.23047495       6.63681090      10.18319109
H        0.59631633       5.35939348       9.72468849
O        0.04518322       9.41245335       0.18393822
H        0.86097303       9.87669131      12.32715548
H       11.86621078      10.09724089       0.51543292
O       12.39427748       9.42628715       3.29343910
H       12.40796894       8.43000021       3.50188836
H        0.48865066       9.52806132       2.43458288
O       12.31847514       9.37788231       6.39652661
H        0.80943714       9.41284566       6.21325774
H       12.17390560      10.10870886       6.99988790
O        0.05755999       9.23763993       9.41325811
H       11.96785741       9.33546725       8.59107775
H       12.12011943       9.94122077       9.95288218
O        3.17190226      12.22735495       0.07498154
H        2.20028995      12.04267877      12.40969005
H        3.51991882      12.15837168      11.61531802
O        3.23209607       0.13395740       3.16815929
H        3.33649574       0.93948896       2.66856582
H        4.16304542      12.31737272       3.48157956
O        3.16735890       0.12807144       6.44208634
H        2.67445600       0.26755160       5.61536277
H        3.87265906      11.84313490       6.24536743
O        3.18137457      12.42947104       9.32982564
H        3.13418103      11.43611259       9.39490900
H        3.96610673       0.23264794       9.89575940
O        3.20219363       2.98016090       0.18189380
H        3.08112828       2.58417964       1.05302923
H        3.43264655       2.20176753      12.09295782
O        3.18187936       3.21374242       3.15776699
H        3.69096991       3.68757897       2.47019815
H        3.89210236       2.96164009       3.85268039
O        3.16654101       3.12078707       6.34693683
H        2.80840886       2.24537612       6.13093395
H        2.34471865       3.65043329       6.56848135
O        3.13347583       3.10440820       9.33117684
H        3.72119897       3.18943709       8.51498367
H        3.29575338       3.91547458       9.82900329
O        3.04709179       6.20436202       0.03935438
H        2.09443219       6.35164927      12.37982620
H        3.33400421       5.87732548      11.63954964
O        3.23888558       6.23448128       3.26100203
H        2.42011944       5.98554444       3.74312561
H        3.50648868       5.43770126       2.82493090
O        3.34770733       6.26136605       6.35679520
H        3.31371695       7.15830569       5.92556666
H        3.87479491       5.73508227       5.70216759
O        3.23672601       6.27217873       9.52549984
H        3.06144324       6.72998953       8.65159660
H        3.17553725       7.00787843      10.19342504
O        3.28425043       9.36435733       0.04221820
H        4.27383584       9.39557595      12.30628297
H        3.24228861       9.18124108       0.97844829
O        2.96940927       9.27279366       3.15714504
H        3.71634207       9.17329467       2.56855981
H        2.42886325       8.44971673       2.95898344
O        3.07382554       9.30225554       6.33561430
H        2.93157948       8.69186500       7.03763729
H        4.05333094       9.43251578       6.23804019
O        3.06950495       9.37764696       9.43958438
H        3.59921256       9.74490465      10.14551414
H        2.63755895      10.11601411       8.92521287
O        6.25350842       0.09428313       0.12622524
H        6.12068156       0.88785659       0.59961630
H        7.08355675      12.14668810       0.45983514
O        6.46071961       0.15099347       3.34414682
H        6.24215581       0.78207759       2.68369151
H        5.91012854      11.82664253       3.18668252
O        6.21901745      12.39920479       6.35167153
H        5.24516465       0.21005040       6.37402894
H        6.12235705      11.54623921       6.76064849
O        6.25932830       0.08511074       9.54716705
H        5.93919140       0.17354826       8.56100770
H        6.78688453       0.89426281       9.61437278
O        6.31381688       3.28426601       0.10169846
H        5.38887068       3.49369611      12.29636932
H        6.42741438       2.42989170      12.15765801
O        6.27538119       3.18225816       3.19749393
H        7.08880103       2.96346069       2.74701854
H        5.62002234       3.13118423       2.48219164
O        6.31709750       3.02435463       6.28286029
H        7.15855318       2.87325267       6.70434204
H        5.79816141       3.49531375       6.95864282
O        6.22756682       3.19524966       9.43734165
H        5.55768251       3.45534283      10.08610337
H        6.13104339       2.21528155       9.37080628
O        6.23225617       6.13456923       0.09642219
H        6.50811190       5.29419080      12.17568851
H        5.80944405       6.60362327      11.75942387
O        6.27778822       6.33129115       3.14168740
H        6.41066073       6.16893490       4.07173516
H        6.75721387       5.56985270       2.74511162
O        6.22354959       6.20576341       6.21696036
H        5.94563563       6.92011999       6.79466039
H        6.80739589       5.61753394       6.73771498
O        6.20584696       6.31165887       9.60812928
H        5.82506720       6.72279354       8.82022710
H        7.18785655       6.55839741       9.62338972
O        6.18405746       9.34893049       0.13276294
H        6.97470182       9.88356809       0.30780216
H        6.25504041       9.17330051      11.60693008
O        6.29324041       9.30555593       3.12362333
H        5.60356089       9.96242815       3.31594422
H        6.87226224       9.71464453       2.43302646
O        6.31227945       9.34037014       6.39333985
H        6.52648389      10.26859685       6.60588052
H        5.72517013       9.10762569       7.13722134
O        6.31284791       9.39643467       9.28146073
H        5.78563439       8.64684795       8.93669687
H        5.90714137      10.15569473       8.83907787
O        9.30037890       0.11639582       0.14559197
H        8.80615057       0.54705638       0.87893839
H       10.23457741       0.12298883       0.42250830
O        9.33244435      12.33581817       3.26734419
H        8.69849685       0.40012830       3.77935022
H        9.31207948      11.42127792       3.68226881
O        9.35445295       0.03493612       6.39250828
H       10.35149417      12.34967866       6.39241926
H        9.05374126      11.58019150       6.09585776
O        9.39906512       0.17916297       9.41600148
H        9.41184636       0.45686274      10.37091265
H       10.35916699       0.13281120       9.18623747
O        9.30430016       2.94749036       0.21791987
H        8.43604854       3.26130498       0.56298142
H        9.39075151       2.05606576       0.50248036
O        9.28666278       3.09985593       3.19529541
H       10.14979200       2.73553108       2.87094406
H        9.38970550       3.08788471       4.18300732
O        9.38772377       3.06540962       6.34521378
H        9.04117462       3.70658158       5.66115874
H       10.10749135       3.52235596       6.83535300
O        9.39192434       3.18111147       9.33937654
H       10.35809877       3.21118892       9.52662263
H        8.99115798       3.28655204      10.29824448
O        9.50256647       6.17520297       0.09820654
H        9.46387945       5.41896441       0.72975781
H        8.81400386       5.96813988      11.90263339
O        9.25741613       6.27064944       3.12295428
H        8.67692353       6.95546320       3.42659733
H        9.67091259       6.53123177       2.23531375
O        9.40909400       6.11642003       6.29556612
H        9.24843262       5.16594652       6.19394544
H       10.27338533       6.25046737       5.91552751
O        9.38943641       6.19698119       9.36045923
H        8.74933001       6.91814949       9.23343429
H        9.18364720       5.68482796       8.59317617
O        9.27317936       9.22727290       0.08407523
H        9.09643583       9.84509311      11.77267383
H        9.87118693       9.72900613       0.66180880
O        9.46585777       9.45607119       3.37840368
H       10.20513252       8.97274475       3.71080406
H        9.58272436       9.43724658       2.44664579
O        9.36934586       9.30983512       6.35066102
H       10.29583236       9.40721851       6.10425113
H        9.24150053       8.39932686       6.63745517
O        9.28504475       9.37190891       9.40365330
H        9.48677915       8.42243577       9.65922096
H        8.47736819       9.41572298       8.88519410
192
Lattice="12.429633119082435 0.0 0.0 0.0 12.429633119082435 0.0 0.0 0.0 12.429633119082435" Properties=species:S:1:pos:R:3 pbc="T T T"
O        0.07593241       0.00560148      12.41717986
H        0.15948835       0.58175129       0.81313358
H        0.58783379       0.48403720      11.73145940
O       12.29035477      12.39689988       3.24005694
H       11.74598391       0.66579757       3.60209541
H        0.75967691       0.04855428       3.58175420
O        0.09807506      12.34892575       6.32874444
H        0.17608354      11.37646315       6.45293966
H        0.97709580       0.33652994       6.40907073
O        0.14973502       0.13191832       9.47577516
H        0.56623461       0.27890322      10.29337742
H        0.65618139       0.76559997       8.92521170
O        0.13585477       3.09925459       0.14717486
H        0.23038429       2.25185142       0.59531251
H        0.05157640       3.77358799       0.82450655
O        0.07929395       3.23449690       3.20429189
H       12.17338297       3.63332914       4.07823122
H        0.00450776       2.24137373       3.29230595
O        0.01639224       3.07096625       6.27109419
H       11.73220491       3.66707814       6.55963210
H       12.08482495       2.15409243       6.31544519
O        0.01396534       3.09979753       9.24685364
H       11.77509813       3.07247361       8.55304765
H       12.07276751       2.61301839      10.05752213
O       12.24328819       6.18811225       0.19083403
H        0.00400439       5.51992971       0.80418228
H        0.37463094       6.90057462       0.43860964
O        0.09496216       6.17436940       3.29946221
H        0.79920137       5.86972601       3.85754777
H       11.96547061       6.75201127       3.83854725
O       12.38670539       6.28579792       6.27211623
H       11.54432649       6.07994379       6.72758038
H       12.14531958       6.56522477       5.37966877
O        0.03631466       6.10296276       9.40896709
H       12.22599912       6.64741286      10.18426444
H        0.60093390       5.35648124       9.72627256
O        0.04119665       9.41402279       0.18527404
H        0.86383327       9.88004720      12.32936866
H       11.85544490      10.09741911       0.52110713
O       12.39369890       9.42516013       3.29621650
H       12.41300414       8.42357910       3.50662374
H        0.48569002       9.53122370       2.42773969
O       12.31539140       9.38000852       6.39514156
H        0.81797504       9.40588516       6.21721476
H       12.16747570      10.12049764       6.99356341
O        0.05849727       9.23874102       9.41450894
H       11.95654824       9.33612096       8.59439562
H       12.10735143       9.94144567       9.95830250
O        3.17021983      12.23023022       0.07890594
H        2.19522634      12.03265699      12.41085409
H        3.52399992      12.17100231      11.61454672
O        3.22992451       0.13369100       3.17041420
H        3.33568110       0.95485199       2.68155164
H        4.16340734      12.30991523       3.48861031
O        3.16763259       0.12826229       6.44151678
H        2.66803219       0.26770641       5.60994069
H        3.86862113      11.82758702       6.24813637
O        3.17944114      12.42932688       9.32729908
H        3.13421937      11.43183979       9.39456922
H        3.97062612       0.23414985       9.89474520
O        3.20198068       2.97951076       0.18186572
H        3.07727050       2.57640993       1.05652488
H        3.43341702       2.18895320      12.09706048
O        3.18430754       3.21401928       3.15615237
H        3.69624488       3.68588288       2.46032876
H        3.90651444       2.95639985       3.85158067
O        3.16835867       3.12313077       6.34972448
H        2.80891992       2.24193886       6.13521833
H        2.33783912       3.65246605       6.57010876
O        3.13161971       3.10395176       9.33238308
H        3.72453542       3.19644001       8.51086042
H        3.28553942       3.92227460       9.83548609
O        3.04491134       6.20511200       0.03807824
H        2.08670422       6.35530568      12.38542433
H        3.33127394       5.87770240      11.63037384
O        3.23696053       6.23670821       3.25829834
H        2.41987375       5.98441411       3.74579705
H        3.50869146       5.43602505       2.82120525
O        3.34945845       6.25771916       6.36118710
H        3.32430621       7.16123900       5.92594090
H        3.87843267       5.73021203       5.69892560
O        3.24000973       6.27111339       9.52499944
H        3.06626066       6.72751264       8.64236243
H        3.17248763       7.01668402      10.19119212
O        3.28345968       9.36565863       0.03818618
H        4.28298115       9.40631660      12.30792842
H        3.24636750       9.18273603       0.98014466
O        2.96981369       9.26913494       3.15981152
H        3.71728034       9.17484132       2.55961041
H        2.43051059       8.43922870       2.95220339
O        3.07550883       9.30104740       6.33798261
H        2.92925762       8.68278083       7.04239933
H        4.06030957       9.43781857       6.23111220
O        3.07211506       9.37734859       9.43758949
H        3.59289577       9.74007076      10.16058156
H        2.63096512      10.10615395       8.90768508
O        6.25036557       0.09359627       0.12445599
H        6.10775913       0.89156540       0.60001584
H        7.08118540      12.14171321       0.46533166
O        6.46012007       0.15182557       3.34350626
H        6.23871841       0.79199518       2.68378505
H        5.90512341      11.82327326       3.19396351
O        6.21862687      12.40119709       6.34894498
H        5.23852712       0.21393817       6.38388111
H        6.09818480      11.54583381       6.75536994
O        6.25817345       0.08304419       9.55114745
H        5.94630246       0.18020926       8.55117041
H        6.79305712       0.89527515       9.61252900
O        6.31579817       3.28302526       0.10314018
H        5.38064974       3.48545921      12.29516024
H        6.42973927       2.41713840      12.16384711
O        6.27591636       3.18521501       3.19984088
H        7.09128043       2.95930511       2.73926418
H        5.61511711       3.12660403       2.48335355
O        6.31465113       3.02442454       6.28434295
H        7.16997785       2.87334496       6.69768781
H        5.79774307       3.48628350       6.97684153
O        6.22865691       3.19528222       9.43455517
H        5.55894775       3.45944382      10.08933247
H        6.13116922       2.21062855       9.37472352
O        6.23143509       6.13339841       0.09704734
H        6.51381235       5.28651603      12.17959465
H        5.80586666       6.59962461      11.75344996
O        6.27963623       6.32896303       3.14091331
H        6.42145038       6.16378484       4.07878716
H        6.76502772       5.56349414       2.74734726
O        6.22589869       6.20322832       6.21738627
H        5.93502194       6.92554259       6.78645040
H        6.81033065       5.61227217       6.74185379
O        6.20837875       6.31083324       9.60803301
H        5.82459171       6.71984608       8.81541517
H        7.19523170       6.56072464       9.63664730
O        6.17990104       9.35031083       0.13138315
H        6.98039622       9.88071478       0.30804778
H        6.25852000       9.17585346      11.59799746
O        6.29644261       9.30293704       3.12191222
H        5.60613108       9.96375926       3.32052195
H        6.88979118       9.71562593       2.43891999
O        6.31079610       9.34041182       6.39124253
H        6.52787518      10.27128741       6.59526427
H        5.72998441       9.12050245       7.15082253
O        6.31266464       9.39624373       9.28057238
H        5.77675210       8.64162619       8.94451576
H        5.89462882      10.15577805       8.83736106
O        9.30218067       0.11514947       0.14593254
H        8.80243864       0.52659777       0.89553551
H       10.24447690       0.11675130       0.42316526
O        9.33277316      12.33502796       3.26576695
H        8.69239179       0.39865301       3.78421108
H        9.31476935      11.41123262       3.68162818
O        9.35183162       0.03714812       6.39229124
H       10.35602353      12.34741805       6.39644547
H        9.05617737      11.56888868       6.10727690
O        9.40024514       0.17568188       9.41424696
H        9.40877608       0.45104809      10.37627621
H       10.36966144       0.14209805       9.19023180
O        9.30540434       2.94775975       0.21748354
H        8.43258676       3.26870589       0.56021563
H        9.38873859       2.04786087       0.49415150
O        9.28527706       3.10422797       3.19639338
H       10.15968100       2.74676982       2.87419537
H        9.39047624       3.09534063       4.18861049
O        9.38313564       3.06689762       6.34515969
H        9.03003873       3.71697081       5.66540714
H       10.09778641       3.51768403       6.85779756
O        9.39482796       3.18426311       9.33362110
H       10.36421695       3.21820705       9.53890901
H        8.98702997       3.28952300      10.30007544
O        9.50124498       6.17429063       0.09747511
H        9.46200923       5.40909783       0.72727852
H        8.79367031       5.97547070      11.90812440
O        9.25771905       6.27358111       3.12329209
H        8.66744748       6.95894105       3.43365717
H        9.68327940       6.52746262       2.23047769
O        9.40904638       6.11766901       6.29554184
H        9.24925588       5.16138247       6.20460808
H       10.27309384       6.25236347       5.89983708
O        9.39087794       6.19622953       9.36051212
H        8.74245187       6.91430745       9.22786233
H        9.16900521       5.68135086       8.58782722
O        9.27299364       9.22231591       0.08433249
H        9.09866517       9.84041336      11.76252456
H        9.88427500       9.72736448       0.65344111
O        9.46572598       9.45742524       3.37633682
H       10.21133124       8.96951344       3.70767857
H        9.58983637       9.45390818       2.43758451
O        9.37002341       9.30887161       6.34652847
H       10.30420157       9.41863549       6.11094256
H        9.23964972       8.39420916       6.63597215
O        9.28629939       9.37355896       9.40487147
H        9.48988702       8.42377310       9.67368010
H        8.47775533       9.43432295       8.87583021
