24
Lattice="12.4296331191 0 0 0 12.4296331191 0 0 0 12.4296331191" Properties=species:S:1:pos:R:3 pbc="T T T"
O 3.2454011864 6.2276353205 3.2732953894
H 2.4362579341 5.9929288057 3.7276431517
H 3.5087820461 5.4254407018 2.8223561956
O 3.3406424217 6.2764739330 6.3386325466
H 3.2698650376 7.1372727580 5.9260216103
H 3.8594618922 5.7576235493 5.7239354860
O 6.3254509393 3.0245937732 6.2761447410
H 7.1438254596 2.8634938132 6.7457635092
H 5.7923308329 3.5303456673 6.8895204935
O 6.2707784115 6.3401789832 3.1429414797
H 6.3654330713 6.1881312548 4.0832360206
H 6.7197103641 5.6003740353 2.7338197607
O 6.2148165595 6.2148165595 6.2148165595
H 5.9837387949 6.9115134649 6.8291847950
H 6.7943912322 5.6382602409 6.7127200142
O 6.1974675990 6.3152003824 9.6091215336
H 5.8188271386 6.7336728892 8.8359824757
H 7.1274961270 6.5385257767 9.5716442697
O 6.3172521190 9.3395360374 6.4012177870
H 6.5381943366 10.2399227518 6.6393776936
H 5.7109773173 9.0525537960 7.0840822670
O 9.4075388881 6.1121911628 6.2968794047
H 9.2397321647 5.1810058348 6.1520808258
H 10.2904010177 6.2529662122 5.9548725545
